INPUT_PARAMETERS
calculation relax
basis_type lcao
ntype 2
ecutwfc 60.000000
scf_nmax 100
gamma_only 1

dft_functional hse
relax_nmax 100
scf_thr 1e-6
force_thr_ev 1e-2
