ATOMIC_SPECIES
Si 28.085 Si_ONCV_PBE-1.0.upf upf201
C 12.011 C_ONCV_PBE-1.0.upf upf201

NUMERICAL_ORBITAL
Si_gga_9au_100Ry_3s3p2d.orb
C_gga_9au_100Ry_3s3p2d.orb

LATTICE_CONSTANT
1.88972612546

LATTICE_VECTORS
9.23790344848 0 0 #latvec1
-4.72509295056 8.14988667747 0 #latvec2
-0.291835614834 0.26760588854 10.1705519747 #latvec3

ATOMIC_POSITIONS
Cartesian

Si #label
0 #magnetism
36 #number of atoms
-0.0431571533651  1.84201595257  2.51554451227  m  1  1  1  v  0.000111406524422  0.000268625197401  -0.00015615744721
3.03553374421  7.20489008155  2.47507831343  m  1  1  1  v  0.000258109947656  0.00014349206846  -0.000234970587886
-3.1821476958  7.17533270904  2.39326851753  m  1  1  1  v  0.000176006662344  1.88537814768e-05  0.000159879700849
4.52868336695  6.35495531849  5.07146084608  m  1  1  1  v  -9.23839939149e-05  5.99231861218e-06  -3.39856932963e-05
1.45582453623  0.970959747237  5.08886567601  m  1  1  1  v  -5.24964915076e-05  -3.19850114337e-05  9.12132556169e-05
7.66678560412  1.04246578248  5.174860815  m  1  1  1  v  -0.000115432473473  5.13469928777e-06  1.08516256994e-05
-0.126628963426  1.88292680677  7.60926312889  m  1  1  1  v  0.000283670489087  -2.24611563446e-05  9.4886114241e-05
2.9383854535  7.29788652948  7.57294032485  m  1  1  1  v  -6.61534398576e-05  -0.000281444656698  -2.92910307697e-05
-3.23320484167  7.2380550381  7.49908171059  m  1  1  1  v  -9.81591373359e-05  0.000175713335765  0.000260637898538
4.45140540789  6.41481819744  10.1496519572  m  1  1  1  v  -0.000216465507304  -0.000147594949549  9.56232845485e-05
1.38358586892  1.02590483482  10.1697216358  m  1  1  1  v  -6.74429224746e-05  0.000263370516192  4.17602184488e-05
7.89425606935  0.812234822697  0.0908652854169  m  1  1  1  v  6.36658451944e-05  0.000186594785696  -0.000156769218262
-1.63834480296  4.50114085022  2.47191093731  m  1  1  1  v  0.00019168034214  3.89829761789e-05  0.000192612427586
1.48127340545  4.52209881155  2.50890873969  m  1  1  1  v  -3.74231479233e-05  -6.06061228519e-05  0.000167451190882
-0.0818248761823  7.18741859  2.43769481024  m  1  1  1  v  -6.31518991471e-05  0.000221815969234  0.000176677163217
6.10010843673  3.67003464854  5.13821202385  m  1  1  1  v  3.94541155861e-05  -0.00022593735265  -0.000141196621548
2.99206226379  3.65906348907  5.05460455948  m  1  1  1  v  -0.000235130875189  5.53057335752e-05  -0.000147113114397
4.56545052283  0.98406702798  5.16806014551  m  1  1  1  v  -0.000161003068159  -3.90881716769e-05  -0.000144787635808
-1.69529970722  4.58102755743  7.53752310107  m  1  1  1  v  -0.000167881194406  0.000201094847397  4.33541522095e-05
1.40397354378  4.57372717796  7.61177915622  m  1  1  1  v  6.24430385959e-05  -1.8264802823e-05  0.000188393219574
-0.151510475571  7.28244220779  7.53212284163  m  1  1  1  v  0.000158509223395  0.000239395006389  0.000149199994539
6.31181434472  3.48273774334  0.026460921944  m  1  1  1  v  -0.000129331637837  -1.31723726765e-05  1.50459223267e-05
2.939202359  3.7168095618  10.1669666335  m  1  1  1  v  5.98728799997e-05  -0.000161552055664  3.90647413511e-05
4.78826900625  0.782926037356  0.0405778735119  m  1  1  1  v  -8.81350074984e-05  0.000106838369217  -1.69983138619e-05
3.0411825603  1.84887092139  2.5637350623  m  1  1  1  v  9.94149567994e-05  -0.000289122767044  0.000207280972043
6.1326116545  1.87110655394  2.60907868997  m  1  1  1  v  0.000252741938141  9.11586787518e-05  -2.50716643211e-05
4.5633538801  4.53529177865  2.55584940173  m  1  1  1  v  0.000136272410494  0.000183439265983  2.85821367688e-05
1.44049111417  6.33470437951  5.024628214  m  1  1  1  v  -3.73071869841e-05  4.70868468358e-05  -9.12792741896e-06
-1.67076889379  6.31288704632  4.97372269354  m  1  1  1  v  0.00018356843679  0.000176909165268  -0.000144491627721
-0.077052365501  3.64309106582  5.04593022112  m  1  1  1  v  -0.000127378309913  0.000221418362733  -0.000165394601052
2.96752929786  1.9019256011  7.64846242171  m  1  1  1  v  -0.000249748212682  4.72337947515e-05  7.29370201945e-05
6.08228611794  1.94399832304  7.67288915418  m  1  1  1  v  0.000208685682831  -7.01666644128e-05  6.95638569387e-05
4.5197422786  4.61517206692  7.62680679043  m  1  1  1  v  -0.000111552095374  -5.05712169407e-06  0.000217356812907
1.36262338171  6.38674924276  10.1098243336  m  1  1  1  v  -5.55115316072e-05  -5.65465315094e-05  1.14586745073e-06
-1.74342315142  6.3856546606  10.0406137555  m  1  1  1  v  -5.37502096459e-05  1.67181031815e-05  6.53203689248e-05
-0.15178110144  3.71192491076  10.1172207121  m  1  1  1  v  0.000136875676093  -6.01529996424e-05  -0.000168142157531

C #label
0 #magnetism
36 #number of atoms
-0.0930305825385  1.84548696094  4.43050092692  m  1  1  1  v  0.000242739151809  9.85901439916e-05  2.75464513909e-05
2.97885880598  7.22074240957  4.38726436534  m  1  1  1  v  0.000231671263347  7.17827239796e-05  -0.000391847216826
-3.22495494458  7.21348419058  4.32837051403  m  1  1  1  v  -0.000258151282849  0.00034507737034  0.000359323815567
4.52957277588  6.37460098776  6.94530616462  m  1  1  1  v  -6.30902155537e-05  -0.000390606205362  0.000146793357499
1.44002085667  1.00685773544  6.98915979947  m  1  1  1  v  -0.000232795493019  -0.000316925549073  -0.000280052041746
7.64141341864  1.02508710962  7.04469697913  m  1  1  1  v  -0.000173470089229  -0.000500413253036  0.000110079190228
-0.166114743036  1.90271354435  9.53257392684  m  1  1  1  v  2.40335353918e-05  -8.29895835659e-05  0.00013294164635
2.90515020636  7.30328497801  9.48016477038  m  1  1  1  v  -0.000184122166687  0.00035244788902  4.79499160675e-05
-3.26878941641  7.28046300666  9.3926105942  m  1  1  1  v  0.000322032393919  0.000271373117242  9.24691606556e-05
4.59753669049  6.28866311245  1.8884549511  m  1  1  1  v  -0.000145918807683  -6.01779875907e-05  0.000384255196618
1.517542072  0.916686164417  1.9211935494  m  1  1  1  v  0.000166690288263  0.000113883742305  -1.79619591169e-05
7.70568050453  0.963735427782  2.00983860897  m  1  1  1  v  0.000155385021483  -0.00019561546409  -6.75222023274e-06
-1.67232455556  4.51178606201  4.37391593739  m  1  1  1  v  -0.00021209401472  -0.000389057224364  -0.000123456898859
1.44732203974  4.58660159153  4.39855845719  m  1  1  1  v  -0.000437362980553  5.60373828437e-05  -2.80563418569e-05
-0.115343238526  7.24062278076  4.37125008833  m  1  1  1  v  0.000207470815127  -0.00011040095997  -0.000288923117514
6.06759183118  3.72851069621  7.03637736393  m  1  1  1  v  -0.000121761038029  0.000205847528025  -0.000311689906716
2.96555588379  3.6738639142  6.97819745937  m  1  1  1  v  7.50115383421e-05  -0.000251851112172  0.000135359694418
4.55634227654  1.02192720905  7.02330337393  m  1  1  1  v  0.000190392105133  2.09711650567e-05  -3.2632766752e-05
-1.7458245598  4.57202667959  9.45530395792  m  1  1  1  v  -0.000239388716097  -0.000103400726092  -0.000309393520282
1.39710272285  4.63220705043  9.49808789975  m  1  1  1  v  0.00023981343806  0.000247225701665  0.000150270205346
-0.190474050562  7.28523350944  9.46349988715  m  1  1  1  v  0.000179554688796  -3.74700327594e-05  0.000314669242647
6.15067342015  3.64331768982  1.94023412387  m  1  1  1  v  0.000131728248602  4.602827794e-05  -0.000366160754856
3.06253749334  3.60648271558  1.89528415054  m  1  1  1  v  0.000232692847322  -0.000153961800358  -0.000221688977101
4.62908935601  0.939783163784  1.97205512312  m  1  1  1  v  7.44374191545e-05  -0.000136014657216  -0.000149955359291
3.01680024972  1.89094463764  4.47943880859  m  1  1  1  v  3.56895986259e-05  7.63870922617e-05  -0.000265164023665
6.14532053406  1.88892903652  4.50766672473  m  1  1  1  v  0.000179998302397  2.51689452844e-05  1.55533893037e-05
4.57525550397  4.57998239894  4.45681279534  m  1  1  1  v  -7.09616016683e-05  6.12776012144e-05  -0.00026496265647
1.41448357525  6.35932913987  6.95112688335  m  1  1  1  v  7.1603039405e-05  -0.000197047987456  0.000272413783211
-1.69709031524  6.35008085312  6.90915757515  m  1  1  1  v  5.17963857293e-05  1.49446346938e-05  0.000149762720884
-0.119473228324  3.67143862005  6.9442809139  m  1  1  1  v  0.000213069171947  -0.00025429490531  -4.08631559008e-05
2.94898594896  1.95655365438  9.53617560077  m  1  1  1  v  -0.00014503457627  -0.000118788779436  -0.000123008226383
6.06275036267  1.94478813822  9.59373542368  m  1  1  1  v  0.000133753997931  -0.000404558991545  -3.81282898565e-05
4.48296308857  4.6168626947  9.5384184692  m  1  1  1  v  -0.000178291744898  -0.000169456387213  0.000314279876671
1.49660677959  6.29048860959  1.84592342872  m  1  1  1  v  0.000119882782272  -8.30372214047e-05  0.000202285395174
-1.62437169103  6.24582134691  1.83783394174  m  1  1  1  v  6.45315357234e-06  -2.89393915693e-05  0.000287789734317
-0.0511971826604  3.60835986941  1.8471114072  m  1  1  1  v  -0.000244003888506  0.000159720415587  -0.000131240282837
