ATOMIC_SPECIES
Si 28.085 Si_ONCV_PBE-1.0.upf
C 12.011 C_ONCV_PBE-1.0.upf

LATTICE_CONSTANT
1.8897261254578281

LATTICE_VECTORS
9.39354431029808 0.0 0.0 
-4.531834195290631 7.946732295866365 0.0 
0.23696769227016498 -0.06454387166263292 10.369412175380853 

ATOMIC_POSITIONS
Cartesian    # Cartesian(Unit is LATTICE_CONSTANT)
Si
0.0
36
0.045957614208 1.805178146208 2.568408507974 1 1 1
3.238952526548 7.182115097000 2.547839506210 1 1 1
-3.023100605769 7.251144200985 2.616103834312 1 1 1
4.816156111712 6.262066022315 5.102116287377 1 1 1
1.636938360198 0.871056438607 5.120161031297 1 1 1
7.905881194670 0.810694670512 5.063155322396 1 1 1
0.104907776905 1.796863046742 7.710455845060 1 1 1
3.295959122674 7.168223839556 7.700399103310 1 1 1
-2.956780608396 7.242038516438 7.764251514114 1 1 1
4.876306452290 6.244257031258 10.251307489605 1 1 1
1.688415698861 0.851970247453 10.262274022138 1 1 1
7.954575317389 0.785104038205 10.184399166325 1 1 1
-1.479950872756 4.531570239978 2.603774850140 1 1 1
1.653683960458 4.503588706794 2.559396312302 1 1 1
0.102754136249 7.220165543962 2.586359633438 1 1 1
6.355618146066 3.534415479562 5.072048738016 1 1 1
3.210285079829 3.562921793752 5.122616507984 1 1 1
4.753138802311 0.834657718265 5.083126691337 1 1 1
-1.435801781805 4.501334969919 7.722772013468 1 1 1
1.688190378195 4.483532032766 7.703040441819 1 1 1
0.167035439111 7.205006529999 7.724194463030 1 1 1
6.417687597528 3.524206851641 10.208711025446 1 1 1
3.285079144313 3.545060038003 10.255831103983 1 1 1
4.820264479808 0.825035582317 10.225607160966 1 1 1
3.163522188946 1.766687505160 2.533579033402 1 1 1
6.310210459789 1.732247278018 2.506341794702 1 1 1
4.778236620907 4.467509472858 2.518931996940 1 1 1
1.688498017326 6.284843402878 5.130327373168 1 1 1
-1.428585968589 6.323570476152 5.180979858213 1 1 1
0.096026549097 3.603969658679 5.136085265449 1 1 1
3.243299743426 1.753619662989 7.677972414201 1 1 1
6.378645924174 1.732658284406 7.652477740926 1 1 1
4.837182202734 4.447589642013 7.678563604824 1 1 1
1.746005364085 6.254743145072 10.291204052105 1 1 1
-1.386753159301 6.302148169808 10.305281037952 1 1 1
0.138185746832 3.564855865701 10.283756118031 1 1 1
C
0.0
36
0.069206133670 1.797413281707 4.498815500551 1 1 1
3.259599061502 7.179737448138 4.485344788773 1 1 1
-3.005108336574 7.240576721786 4.559698851852 1 1 1
4.845442623595 6.249877285782 7.035605584131 1 1 1
1.651343598365 0.861352900677 7.055034828671 1 1 1
7.914930391961 0.800272602574 6.977563801348 1 1 1
0.117360073685 1.786576611941 9.628282210663 1 1 1
3.326262201498 7.174383040444 9.613057337590 1 1 1
-2.950588072865 7.230555721927 9.703085949892 1 1 1
4.786613440056 6.277887106317 1.894666757533 1 1 1
1.598727845360 0.882105573963 1.922758644901 1 1 1
7.863085250641 0.822998748788 1.840242128470 1 1 1
-1.468180048505 4.523470659925 4.531709300986 1 1 1
1.666419116821 4.474124630531 4.489947422359 1 1 1
0.136512201144 7.210229152718 4.519666541353 1 1 1
6.378944724798 3.529008298925 7.008925794618 1 1 1
3.246612481698 3.554247722378 7.037340950413 1 1 1
4.776128663477 0.844030733148 7.024603927528 1 1 1
-1.409994304170 4.502540276328 9.654400546732 1 1 1
1.718935393498 4.479296961789 9.630016955835 1 1 1
0.182504217440 7.189419067370 9.663120450293 1 1 1
6.323755079937 3.544966927938 1.866647105551 1 1 1
3.189148426469 3.583631711491 1.903591812457 1 1 1
4.728437382699 0.848556558864 1.893760503074 1 1 1
3.205146302048 1.755766306916 4.477808110189 1 1 1
6.325112961588 1.721203389589 4.432700550498 1 1 1
4.793834570356 4.455342158722 4.460515990574 1 1 1
1.701259460770 6.283842461294 7.047600895095 1 1 1
-1.427178749707 6.324639298433 7.106644442639 1 1 1
0.116774245756 3.585040370687 7.081763951739 1 1 1
3.251253154123 1.741561252521 9.608699184028 1 1 1
6.395527906455 1.705762145581 9.568275702677 1 1 1
4.847957507349 4.439007147091 9.599313933479 1 1 1
1.666978412271 6.315787068071 1.944736925473 1 1 1
-1.467528178714 6.338539191610 1.959385681647 1 1 1
0.068298565143 3.617207074255 1.935604068923 1 1 1

NUMERICAL_ORBITAL
Si_gga_9au_100Ry_3s3p2d.orb
C_gga_9au_100Ry_3s3p2d.orb
