ATOMIC_SPECIES
C 12.010700 C.upf
Ni 58.693400 Ni_ONCV_PBE-1.2.upf
Ti 47.867000 Ti_ONCV_PBE-1.2.upf

NUMERICAL_ORBITAL
C_gga_8au_100Ry_2s2p1d.orb
Ni_gga_7au_100Ry_4s2p2d1f.orb
Ti_gga_7au_100Ry_4s2p2d1f.orb

LATTICE_CONSTANT
1.889726

LATTICE_VECTORS
    6.12720000000     0.00000000000     0.00000000000
    0.00000000000    43.41320000000     0.00000000000
    0.00000000000     0.00000000000     8.66510000000

ATOMIC_POSITIONS
Cartesian

C
0.000000
20
    1.52193520800    14.43575726400     4.33211674500 1 1 1 mag   0.00000000 
    1.52193520800    14.43575726400     8.66466674500 1 1 1 mag   0.00000000 
    6.11733520800    15.96824322400     2.16584174500 1 1 1 mag   0.00000000 
    6.11733520800    19.03364927600     2.16584174500 1 1 1 mag   0.00000000 
    6.11733520800    19.03364927600     6.49839174500 1 1 1 mag   0.00000000 
    4.58553520800    17.50116331600     8.66466674500 1 1 1 mag   0.00000000 
    4.58553520800    17.50116331600     4.33211674500 1 1 1 mag   0.00000000 
    3.05373520800    19.03364927600     2.16584174500 1 1 1 mag   0.00000000 
    3.05373520800    19.03364927600     6.49839174500 1 1 1 mag   0.00000000 
    4.58553520800    14.43575726400     8.66466674500 1 1 1 mag   0.00000000 
    6.11733520800    15.96824322400     6.49839174500 1 1 1 mag   0.00000000 
    6.11733520800    12.90327130400     2.16584174500 1 1 1 mag   0.00000000 
    6.11733520800    12.90327130400     6.49839174500 1 1 1 mag   0.00000000 
    3.05373520800    12.90327130400     2.16584174500 1 1 1 mag   0.00000000 
    3.05373520800    12.90327130400     6.49839174500 1 1 1 mag   0.00000000 
    1.52193520800    17.50116331600     8.66466674500 1 1 1 mag   0.00000000 
    1.52193520800    17.50116331600     4.33211674500 1 1 1 mag   0.00000000 
    3.05373520800    15.96824322400     2.16584174500 1 1 1 mag   0.00000000 
    4.58553520800    14.43575726400     4.33211674500 1 1 1 mag   0.00000000 
    3.05373520800    15.96824322400     6.49839174500 1 1 1 mag   0.00000000 

Ni
0.000000
54
    2.04237957600    21.03326126800     1.44421221700 1 1 1 mag   0.6000000 
    0.00000000000    21.03326126800     4.33255000000 1 1 1 mag   0.6000000 
    4.08482042400    21.03326126800     7.22088778300 1 1 1 mag   0.6000000 
    2.04237957600    22.28269316400     3.61048721700 1 1 1 mag   0.6000000 
    0.00000000000    22.28269316400     6.49882500000 1 1 1 mag   0.6000000 
    4.08482042400    22.28269316400     0.72206278300 1 1 1 mag   0.6000000 
    2.04237957600    23.53342745600     1.44421221700 1 1 1 mag   0.6000000 
    4.08482042400    22.28269316400     5.05461278300 1 1 1 mag   0.6000000 
    0.00000000000    22.28269316400     2.16627500000 1 1 1 mag   0.6000000 
    2.04237957600    22.28269316400     7.94303721700 1 1 1 mag   0.6000000 
    0.00000000000    24.78416174800     2.16627500000 1 1 1 mag   0.6000000 
    4.08482042400    24.78416174800     5.05461278300 1 1 1 mag   0.6000000 
    2.04237957600    24.78416174800     7.94303721700 1 1 1 mag   0.6000000 
    2.04237957600    21.03326126800     5.77676221700 1 1 1 mag   0.6000000 
    4.08482042400    23.53342745600     7.22088778300 1 1 1 mag   0.6000000 
    4.08482042400    21.03326126800     2.88833778300 1 1 1 mag   0.6000000 
    0.00000000000    31.03609668000     0.00000000000 1 1 1 mag   0.6000000 
    2.04237957600    29.78709891600     7.94303721700 1 1 1 mag   0.6000000 
    4.08482042400    26.03489604000     2.88833778300 1 1 1 mag   0.6000000 
    0.00000000000    21.03326126800     0.00000000000 1 1 1 mag   0.6000000 
    2.04237957600    23.53342745600     5.77676221700 1 1 1 mag   0.6000000 
    4.08482042400    23.53342745600     2.88833778300 1 1 1 mag   0.6000000 
    0.00000000000    23.53342745600     0.00000000000 1 1 1 mag   0.6000000 
    4.08482042400    31.03609668000     7.22088778300 1 1 1 mag   0.6000000 
    0.00000000000    31.03609668000     4.33255000000 1 1 1 mag   0.6000000 
    2.04237957600    26.03489604000     5.77676221700 1 1 1 mag   0.6000000 
    2.04237957600    31.03609668000     1.44421221700 1 1 1 mag   0.6000000 
    0.00000000000    29.78709891600     6.49882500000 1 1 1 mag   0.6000000 
    2.04237957600    29.78709891600     3.61048721700 1 1 1 mag   0.6000000 
    2.04237957600    28.53636462400     5.77676221700 1 1 1 mag   0.6000000 
    4.08482042400    28.53636462400     2.88833778300 1 1 1 mag   0.6000000 
    0.00000000000    28.53636462400     0.00000000000 1 1 1 mag   0.6000000 
    2.04237957600    31.03609668000     5.77676221700 1 1 1 mag   0.6000000 
    4.08482042400    31.03609668000     2.88833778300 1 1 1 mag   0.6000000 
    4.08482042400    29.78709891600     0.72206278300 1 1 1 mag   0.6000000 
    2.04237957600    24.78416174800     3.61048721700 1 1 1 mag   0.6000000 
    0.00000000000    26.03489604000     0.00000000000 1 1 1 mag   0.6000000 
    0.00000000000    23.53342745600     4.33255000000 1 1 1 mag   0.6000000 
    4.08482042400    27.28563033200     0.72206278300 1 1 1 mag   0.6000000 
    0.00000000000    27.28563033200     6.49882500000 1 1 1 mag   0.6000000 
    4.08482042400    28.53636462400     7.22088778300 1 1 1 mag   0.6000000 
    0.00000000000    27.28563033200     2.16627500000 1 1 1 mag   0.6000000 
    2.04237957600    27.28563033200     3.61048721700 1 1 1 mag   0.6000000 
    2.04237957600    28.53636462400     1.44421221700 1 1 1 mag   0.6000000 
    0.00000000000    26.03489604000     4.33255000000 1 1 1 mag   0.6000000 
    2.04237957600    26.03489604000     1.44421221700 1 1 1 mag   0.6000000 
    4.08482042400    26.03489604000     7.22088778300 1 1 1 mag   0.6000000 
    0.00000000000    24.78416174800     6.49882500000 1 1 1 mag   0.6000000 
    4.08482042400    27.28563033200     5.05461278300 1 1 1 mag   0.6000000 
    2.04237957600    27.28563033200     7.94303721700 1 1 1 mag   0.6000000 
    0.00000000000    29.78709891600     2.16627500000 1 1 1 mag   0.6000000 
    4.08482042400    29.78709891600     5.05461278300 1 1 1 mag   0.6000000 
    4.08482042400    24.78416174800     0.72206278300 1 1 1 mag   0.6000000 
    0.00000000000    28.53636462400     4.33255000000 1 1 1 mag   0.6000000 

Ti
0.000000
20
    1.52193520800    17.50116331600     2.16584174500 1 1 1 mag   0.00000000 
    1.52193520800    17.50116331600     6.49839174500 1 1 1 mag   0.00000000 
    1.52193520800    14.43575726400     6.49839174500 1 1 1 mag   0.00000000 
    1.52193520800    14.43575726400     2.16584174500 1 1 1 mag   0.00000000 
    3.05373520800    15.96824322400     4.33211674500 1 1 1 mag   0.00000000 
    3.05373520800    15.96824322400     8.66466674500 1 1 1 mag   0.00000000 
    6.11733520800    15.96824322400     4.33211674500 1 1 1 mag   0.00000000 
    3.05373520800    12.90327130400     8.66466674500 1 1 1 mag   0.00000000 
    4.58553520800    14.43575726400     6.49839174500 1 1 1 mag   0.00000000 
    4.58553520800    14.43575726400     2.16584174500 1 1 1 mag   0.00000000 
    6.11733520800    12.90327130400     4.33211674500 1 1 1 mag   0.00000000 
    6.11733520800    12.90327130400     8.66466674500 1 1 1 mag   0.00000000 
    3.05373520800    19.03364927600     4.33211674500 1 1 1 mag   0.00000000 
    3.05373520800    19.03364927600     8.66466674500 1 1 1 mag   0.00000000 
    4.58553520800    17.50116331600     6.49839174500 1 1 1 mag   0.00000000 
    4.58553520800    17.50116331600     2.16584174500 1 1 1 mag   0.00000000 
    6.11733520800    19.03364927600     8.66466674500 1 1 1 mag   0.00000000 
    6.11733520800    19.03364927600     4.33211674500 1 1 1 mag   0.00000000 
    6.11733520800    15.96824322400     8.66466674500 1 1 1 mag   0.00000000 
    3.05373520800    12.90327130400     4.33211674500 1 1 1 mag   0.00000000 
