ATOMIC_SPECIES
Si 28.085 Si_ONCV_PBE-1.0.upf upf201
C 12.011 C_ONCV_PBE-1.0.upf upf201

NUMERICAL_ORBITAL
Si_gga_9au_100Ry_3s3p2d.orb
C_gga_9au_100Ry_3s3p2d.orb

LATTICE_CONSTANT
1.88972612546

LATTICE_VECTORS
8.58965903354 0 0 #latvec1
-0.218066808883 8.75071191207 0 #latvec2
-0.249842313295 0.167709573393 8.91335719048 #latvec3

ATOMIC_POSITIONS
Cartesian

Si #label
0 #magnetism
32 #number of atoms
3.23397085213  1.16370668904  3.32624266855  m  1  1  1  v  3.81881439883e-05  -6.82900204436e-05  2.23120127577e-06
3.17522364548  1.2239023245  7.72138930832  m  1  1  1  v  -5.00507907019e-05  0.000120248791644  8.53669318064e-05
3.17032789577  5.55561726708  3.28891353135  m  1  1  1  v  7.59594226243e-05  -9.50558300188e-05  4.78762094305e-05
3.10672708488  5.60774400723  7.68701045281  m  1  1  1  v  -0.000185612074595  8.1973020138e-05  5.61032669495e-05
7.6200433869  1.23252944428  3.38165900108  m  1  1  1  v  -7.27225177317e-05  -3.91991628063e-05  -5.77052094964e-07
7.56096231553  1.25910366627  7.77722365712  m  1  1  1  v  3.4189481407e-05  -2.33698702704e-05  6.64542874194e-05
7.56552362695  5.62095287276  3.34946301591  m  1  1  1  v  -0.000111759726943  -7.6918288701e-05  0.000112461793337
7.51319645906  5.6647493586  7.73048896425  m  1  1  1  v  0.000173282731264  0.000119818184934  -0.000118103825048
3.23038048944  3.33178507852  1.12521637321  m  1  1  1  v  -0.000163847760266  -0.000167895543573  -4.03142879727e-05
3.17481104783  3.38995762333  5.49891820567  m  1  1  1  v  -6.71601917868e-06  -4.57308133109e-05  7.26162131385e-06
3.17350173516  7.72610913925  1.06900623173  m  1  1  1  v  -0.000157827309533  -3.01395284894e-05  0.000178229731628
3.12712252649  7.77357753563  5.45958588767  m  1  1  1  v  6.74737948761e-05  -5.34228978083e-05  6.5149052665e-05
7.62479993626  3.40399748931  1.17074730888  m  1  1  1  v  -7.72582882082e-05  1.94898713868e-05  -7.22176845094e-05
7.562153395  3.44313770734  5.56215078195  m  1  1  1  v  -3.91790532481e-05  7.89111461749e-05  1.76904415794e-05
7.57389208634  7.79105208864  1.13362144744  m  1  1  1  v  -1.31959414797e-05  -8.9108128888e-06  2.07972045129e-06
7.51776977917  7.83221448819  5.52819505974  m  1  1  1  v  -2.37819514025e-05  6.17225578295e-05  -3.83039657289e-05
1.07904025823  1.13908373669  1.10561173634  m  1  1  1  v  0.000132297084611  0.00025028530858  0.000136122863723
1.00817109705  1.17763087732  5.50462697714  m  1  1  1  v  2.69058542945e-05  0.000228989053583  2.47072352006e-05
1.02519828007  5.52108161061  1.0701066468  m  1  1  1  v  -0.000131036928454  4.60134331961e-05  7.83311744659e-05
0.950279639709  5.56638655722  5.46065866185  m  1  1  1  v  -0.000141557951766  4.90594596363e-05  2.39073919764e-05
5.4591577434  1.16645477377  1.15909603662  m  1  1  1  v  3.77595482433e-05  -0.000108118263991  -2.59312052125e-05
5.3986043073  1.22691455222  5.55300077792  m  1  1  1  v  -2.43002474892e-05  -2.8523776667e-05  -6.95877367898e-05
5.40340481109  5.56310485139  1.11987636024  m  1  1  1  v  9.80344652384e-06  -8.54398191002e-05  -6.18161141031e-05
5.34109041893  5.62068040917  5.50247097445  m  1  1  1  v  -4.18638035045e-05  0.000117203496207  3.99507426435e-05
1.01479221777  3.34194212091  3.28535148394  m  1  1  1  v  3.02347829892e-05  0.000200888520919  8.09893660004e-05
0.955196812299  3.39282079506  7.6862479159  m  1  1  1  v  -3.38032103976e-06  -1.02911069799e-05  -5.52259072883e-05
0.95506531794  7.73705707309  3.24277262166  m  1  1  1  v  -4.69456031855e-05  3.05976824096e-05  -7.20807151654e-05
0.901194130149  7.76291730901  7.63526695614  m  1  1  1  v  3.57501798823e-05  1.05993791639e-05  0.000140949442662
5.40645572664  3.39192084263  3.33904304324  m  1  1  1  v  2.99769713617e-06  1.97927384628e-05  -0.000158452560976
5.34063759379  3.43408777435  7.72268408067  m  1  1  1  v  4.81244820808e-05  6.0551841996e-05  -0.000102861975196
5.34366132926  7.78912013022  3.2961401279  m  1  1  1  v  4.06373701835e-05  5.44298795116e-05  7.3871899559e-06
5.27190377001  7.82727284447  7.68829453807  m  1  1  1  v  7.2691453916e-06  -0.000189779137715  -1.40724690034e-05

C #label
0 #magnetism
32 #number of atoms
0.186414038991  0.110002712032  0.106180123314  m  1  1  1  v  -7.21120428827e-05  1.27919876773e-06  -2.00897831339e-05
0.119430619094  0.153372301576  4.49859990842  m  1  1  1  v  0.000180829976185  -2.65358788086e-05  -0.000164869735816
0.113534221705  4.49168572881  0.0721807137344  m  1  1  1  v  -0.000118515732396  -0.000136456148078  -0.000270371739815
0.0457455832892  4.53194172204  4.46231542526  m  1  1  1  v  -7.04789568049e-05  -0.000168827022826  3.48671865554e-05
4.39867699247  0.0590339858779  0.0495206469627  m  1  1  1  v  -7.29168073631e-05  0.000154782161808  7.39779952367e-05
4.3456964437  0.107843862927  4.45603109821  m  1  1  1  v  5.21176355152e-05  -0.000169102936856  4.44505643154e-05
4.33569339524  4.44416783544  0.0123767645853  m  1  1  1  v  -0.000212546062906  -0.000200040029944  -0.000259254657234
4.27326849201  4.49413888351  4.40336485751  m  1  1  1  v  -0.000128519876923  0.000282045749416  0.000203476511129
0.120246299548  2.32180205176  2.29548067702  m  1  1  1  v  -0.000103591509632  -7.38743414117e-05  -0.000158199018207
0.05670809255  2.3574339827  6.68224294452  m  1  1  1  v  -0.000132792971484  2.33614836426e-05  -6.51910465947e-05
0.0619043905751  6.70971366398  2.2471431376  m  1  1  1  v  -0.000201256530247  -3.71984440963e-05  3.61846095858e-05
0.0142043068379  6.74048443703  6.62880624692  m  1  1  1  v  -8.1283256161e-05  -0.000132432968575  7.19301291805e-05
4.32327672822  2.2709573486  2.23688000224  m  1  1  1  v  5.6288358852e-05  -0.000102214466112  0.000156456400723
4.27521165211  2.32832332145  6.6237992179  m  1  1  1  v  -0.000114575633539  -8.99069229228e-05  -0.000267972867173
4.27216739466  6.6488472791  2.19129910402  m  1  1  1  v  2.82864177545e-05  -0.000210794652804  0.000233439287496
4.21572372351  6.70646146611  6.57803460736  m  1  1  1  v  -0.000188117192818  -0.000206100302702  -0.000311138437085
2.17063973178  0.0582975216137  2.21712732317  m  1  1  1  v  -7.06124104326e-06  -7.27560408719e-05  -0.000178828105065
1.8847329037  8.85352325339  6.61947596654  m  1  1  1  v  0.000115876331324  0.000147411414064  -0.00025026996403
2.10486287966  4.43182341295  2.18913373813  m  1  1  1  v  -9.77067528676e-05  -0.000213049895088  0.000182749078685
2.06143270966  4.48898991775  6.57095789111  m  1  1  1  v  -0.00018021245699  0.000114815668489  -4.7613417938e-05
6.5560867589  0.115925748226  2.29870186687  m  1  1  1  v  -6.90665970828e-05  3.40052808297e-05  -7.75877298833e-05
6.51232757754  0.134945191304  6.66748648297  m  1  1  1  v  2.68303586891e-05  0.000107968291008  -8.29254268293e-05
6.51599174189  4.48986197885  2.23712190942  m  1  1  1  v  0.000141359957904  9.60011491759e-05  -0.000114786734365
6.43262246701  4.546876222  6.63735699224  m  1  1  1  v  -4.71307272598e-05  0.000325945694859  0.000144131338466
1.92093054692  2.38431711389  8.91168418849  m  1  1  1  v  7.54867941907e-05  -8.86238785435e-06  -8.62502855175e-05
2.11464141093  2.27385693531  4.39299662072  m  1  1  1  v  -0.000101687773612  -0.000193062887058  0.000101497228612
1.86818219017  6.77898994256  8.88860613077  m  1  1  1  v  -5.14133232175e-05  6.36250579021e-05  -7.75660244674e-05
2.04990658704  6.66146081822  4.35916456088  m  1  1  1  v  0.000123383910139  0.000124287226458  9.80248100635e-05
6.56305546455  2.27837726619  0.0735053517277  m  1  1  1  v  -7.63653324915e-05  -3.81636206238e-05  0.000157338575564
6.49307213027  2.31752049017  4.45822148091  m  1  1  1  v  7.82246234357e-05  -0.00016096513472  -3.67392059339e-05
6.49724219072  6.67438445788  0.0327445271107  m  1  1  1  v  2.05837198055e-05  2.85319263411e-05  -9.05888410309e-05
6.44941266509  6.7158119358  4.41724794163  m  1  1  1  v  -2.64390775207e-05  5.10440204774e-05  4.12540541876e-05
