ATOMIC_SPECIES
Si 28.085 Si_ONCV_PBE-1.0.upf upf201
C 12.011 C_ONCV_PBE-1.0.upf upf201

NUMERICAL_ORBITAL
Si_gga_9au_100Ry_3s3p2d.orb
C_gga_9au_100Ry_3s3p2d.orb

LATTICE_CONSTANT
1.88972612546

LATTICE_VECTORS
8.53153018036 0 0 #latvec1
0.159475098372 8.67216269875 0 #latvec2
0.118504011684 -0.160511648809 8.85012887275 #latvec3

ATOMIC_POSITIONS
Cartesian

Si #label
0 #magnetism
32 #number of atoms
3.2962678358  1.02709909406  3.26712651579  m  1  1  1  v  -0.000162190270991  -4.98614756265e-05  0.000120135253322
3.3230206482  1.00194643344  7.59687829343  m  1  1  1  v  -2.83629126639e-05  4.16465592576e-05  -0.000167225970478
3.34503597875  5.36931432257  3.29509477859  m  1  1  1  v  0.000231945189287  -2.76317773525e-05  -0.000243219250719
3.34147585017  5.32965506408  7.64250407336  m  1  1  1  v  -0.000182014070403  -7.12485209606e-05  4.28974628211e-05
7.63121514736  0.999282101325  3.21662237713  m  1  1  1  v  -2.98256752952e-06  6.36235138521e-05  -5.81278349623e-05
7.6696261227  0.940929955789  7.57849341832  m  1  1  1  v  0.000150872636797  -0.000248787016864  9.45623098542e-05
7.67519854695  5.3257697702  3.26281637576  m  1  1  1  v  0.000137529095739  -0.000168533162787  -0.000175015447983
7.72349611948  5.31762233148  7.59774673688  m  1  1  1  v  0.000138098223674  0.000133334456763  -3.60991146973e-05
3.29363194404  3.22935557928  1.10057363364  m  1  1  1  v  -0.000242594429619  0.000199118905023  0.000137900344574
3.32906558136  3.18555957731  5.44296613839  m  1  1  1  v  4.53566235174e-05  -0.000157490375277  0.000165360141131
3.32599724395  7.55261253026  1.14586917694  m  1  1  1  v  0.000157175313106  6.76275300839e-06  -0.000236460967698
3.39131861113  7.53695881798  5.48093629936  m  1  1  1  v  -6.39880003763e-05  -2.09023665148e-05  0.000159736590576
7.63899593457  3.17347288107  1.04635720677  m  1  1  1  v  4.74513348995e-05  -9.52906078313e-05  -0.0001832705232
7.67155368481  3.14425893493  5.41386697141  m  1  1  1  v  0.000133935168016  3.43303431061e-05  8.75573757524e-05
7.69188130432  7.51311617938  1.10086588563  m  1  1  1  v  -0.000159970306229  -0.000285538376685  0.000114471119314
7.72428432301  7.48146511134  5.4560910705  m  1  1  1  v  0.000116174687213  0.000184198249309  -0.00013658460333
1.12582411047  1.07683406583  1.07554579895  m  1  1  1  v  0.000189806992882  -9.65788965038e-06  2.43748921016e-05
1.12708913717  1.03351148211  5.45042829288  m  1  1  1  v  2.95356891981e-05  0.000127038371567  -0.000162793360229
1.11782693768  5.40803882424  1.12429697983  m  1  1  1  v  -4.02486131668e-05  -0.000112839430922  3.47569993785e-05
1.18646875931  5.37697480903  5.47609027477  m  1  1  1  v  8.59739374981e-05  -6.71052562561e-05  -0.000114794992641
5.45285937848  1.02656694767  1.06957647187  m  1  1  1  v  -0.000119478519446  0.00010273568598  0.000239636200076
5.49546427277  0.992300616776  5.38814449875  m  1  1  1  v  1.29092044423e-05  3.47067399125e-05  -8.21890306509e-05
5.51175845562  5.35658633889  1.08961923297  m  1  1  1  v  0.000194138014429  9.28732909615e-05  -0.000203278119557
5.51479257865  5.34936677259  5.46186687887  m  1  1  1  v  1.55302709678e-05  -9.11448084198e-05  0.000154483222142
1.14240365426  3.22546890269  3.27955238584  m  1  1  1  v  -0.000175813283084  4.76267555024e-05  0.000179208692756
1.17323643495  3.18828678965  7.63842860433  m  1  1  1  v  -3.91581465327e-05  -0.000176902120448  6.69863429985e-05
1.1922328928  7.57009413497  3.29706657922  m  1  1  1  v  -0.000126187283524  -2.54624610328e-05  2.22056061601e-05
1.23966009323  7.51255018428  7.66941579291  m  1  1  1  v  0.000246391584106  -3.53336246605e-05  -0.000126440534679
5.49833801157  3.16247883578  3.25133220195  m  1  1  1  v  3.87777021696e-05  -9.42681201207e-05  0.000126104709511
5.51059195656  3.13993061847  7.60067374541  m  1  1  1  v  -0.000204493549789  -6.63259614001e-05  0.00011824982384
5.53927664148  7.52491834798  3.27410693066  m  1  1  1  v  4.23038953835e-05  0.000153147891707  0.000164753626337
5.55616711161  7.49058400916  7.63603831348  m  1  1  1  v  -2.63560554922e-05  -0.000159726957409  -9.06993816022e-05

C #label
0 #magnetism
32 #number of atoms
0.435495179557  8.47152852389  8.81827669905  m  1  1  1  v  -0.000365285600419  0.000163501769154  1.62567641557e-05
0.341779034256  8.58530519358  4.30728891443  m  1  1  1  v  -0.000165631478629  0.000212067667044  -3.02682069499e-05
0.296371844419  4.11201957802  8.83091218397  m  1  1  1  v  -0.000352477917202  0.000363122268541  -1.97354246783e-05
0.239656790908  4.22004506052  4.360416962  m  1  1  1  v  -6.26964876271e-05  0.000228475440491  0.000312418174742
4.59834563459  8.50257931301  8.81956191237  m  1  1  1  v  0.000105555335963  0.000381594847318  0.000267056145976
4.54436952785  8.58639351595  4.33654349586  m  1  1  1  v  0.000206855362622  0.000148852623552  0.000299882872561
4.49035751529  4.15015256295  8.83163295781  m  1  1  1  v  7.07162975604e-05  -0.000274553717599  7.39412014225e-05
4.39657184055  4.26642294691  4.34027151132  m  1  1  1  v  -0.000192592758432  -0.000116866919093  4.43647518136e-05
0.159524252926  2.10835619549  2.14888270734  m  1  1  1  v  -0.000151306489257  -4.88199670262e-05  0.000303024109743
0.195320034436  2.0477539206  6.50195694471  m  1  1  1  v  0.00011479536993  -8.52205314247e-05  0.000114186446314
0.228917708806  6.42807020881  2.18111448767  m  1  1  1  v  -7.88529822525e-05  0.000207502210034  -0.000301593827697
0.283047705139  6.40642072253  6.55596080533  m  1  1  1  v  -9.3986068351e-05  -0.000332548098864  0.000289368169292
4.37656215304  2.10248873199  2.18821878239  m  1  1  1  v  -0.000138904603446  -0.000121040360645  2.0319363698e-05
4.40932836802  2.05134571241  6.4756396908  m  1  1  1  v  -0.000162047652615  -6.27310334507e-05  -0.000276608872985
4.42729362232  6.42958657061  2.18665005029  m  1  1  1  v  -0.000407637702349  7.35145903866e-05  5.20942419716e-05
4.44968790879  6.41607975074  6.54699016932  m  1  1  1  v  0.000369634026282  -0.000198484012351  0.000201851472188
2.34426990522  8.62486913615  2.18038747311  m  1  1  1  v  9.31140529843e-05  0.000405396011965  0.000426011682128
2.2065549113  -0.0444207945974  6.51670196912  m  1  1  1  v  -0.000279015640797  0.000117496368166  -0.000180962164021
2.22532427849  4.30458213995  2.23357019818  m  1  1  1  v  -0.000236554852673  4.57065880335e-05  0.00016306938534
2.26893642057  4.27306718489  6.52304632886  m  1  1  1  v  2.702301309e-05  0.00020773934445  -0.000416378163633
6.69449566457  8.62203630731  2.1395107067  m  1  1  1  v  3.72578600171e-05  0.000234691108255  0.000240159981025
6.75077201414  8.54094993876  6.47817866838  m  1  1  1  v  0.00014034506714  -0.000228133160725  -0.000114348326133
6.59932402705  4.26117507237  2.18275749096  m  1  1  1  v  -5.22111851081e-05  8.26534364708e-05  0.000187978741538
6.59320853342  4.24267596394  6.52758722195  m  1  1  1  v  2.25457232596e-05  -0.000107319921006  0.00011013647065
2.31626986802  1.99902022951  8.8303603503  m  1  1  1  v  -0.000322297597975  8.19702203237e-06  -0.000377968934935
2.2393700103  2.0944686921  4.35303337735  m  1  1  1  v  0.000223934143132  -0.000150636875332  -2.83979246627e-05
2.22368186474  6.49959907971  0.0172321584523  m  1  1  1  v  -9.34609125168e-05  -1.41156101508e-05  -0.000205681018963
2.25664401739  6.45511476792  4.38084183178  m  1  1  1  v  -0.000168018711937  0.000221338171319  -1.38156208042e-05
6.64578415871  1.94232717114  8.82031464912  m  1  1  1  v  7.0147657366e-05  1.04574525224e-05  -4.06702809977e-05
6.55638421206  2.07974404113  4.30978283369  m  1  1  1  v  -0.000196572114979  -6.5502936714e-06  0.000267893379947
6.55865252627  6.46240999724  0.0134466050533  m  1  1  1  v  -0.000149450293593  0.000100069274676  -7.79704095767e-05
6.63206582281  6.41577607205  4.36616649898  m  1  1  1  v  2.70525793025e-05  0.000271835355931  -0.000283592563156
