ATOMIC_SPECIES
Si 28.085 Si_ONCV_PBE-1.0.upf upf201
C 12.011 C_ONCV_PBE-1.0.upf upf201

NUMERICAL_ORBITAL
Si_gga_9au_100Ry_3s3p2d.orb
C_gga_9au_100Ry_3s3p2d.orb

LATTICE_CONSTANT
1.88972612546

LATTICE_VECTORS
8.53153018036 0 0 #latvec1
0.159475098372 8.67216269875 0 #latvec2
0.118504011684 -0.160511648809 8.85012887275 #latvec3

ATOMIC_POSITIONS
Cartesian

Si #label
0 #magnetism
32 #number of atoms
3.29222984819  1.02331628706  3.25706107958  m  1  1  1  v  3.72891427558e-05  -7.17127399786e-05  1.72214245444e-06
3.33048548114  0.998301585014  7.5966376424  m  1  1  1  v  -2.88748569811e-05  9.88506117691e-05  0.000101044885183
3.32994777005  5.37679872256  3.30100476809  m  1  1  1  v  7.37196510541e-05  -9.51422911006e-05  4.08798952805e-05
3.34968435807  5.32890839149  7.64650431073  m  1  1  1  v  -0.000160708261362  6.3844544503e-05  6.82840637924e-05
7.64357435697  0.998619830186  3.21619255451  m  1  1  1  v  -7.69403441594e-05  -3.57402894028e-05  2.73042448087e-06
7.67659150906  0.945074257798  7.56660392652  m  1  1  1  v  5.19073920824e-05  -4.05666217033e-05  8.48934493603e-05
7.68095211387  5.3367013739  3.26482660677  m  1  1  1  v  -0.000107872202418  -7.37290732964e-05  0.000115648505872
7.72038003895  5.31223090236  7.6110680513  m  1  1  1  v  0.000195615750978  0.000100595094015  -0.000107172611751
3.29965586981  3.22112909133  1.09739321146  m  1  1  1  v  -0.000167844893267  -0.000171757249661  -3.6349391209e-05
3.33043573535  3.18895590937  5.42913280823  m  1  1  1  v  -9.61689006175e-06  -4.91081990945e-05  1.01084983014e-05
3.33524055023  7.55655525913  1.14075164674  m  1  1  1  v  -0.000118115041182  -2.51866170435e-05  0.000131184165845
3.37511988825  7.53230333079  5.47232036978  m  1  1  1  v  0.000107406387572  -4.8332790337e-05  3.10181052949e-05
7.6448857754  3.16910735609  1.06386492989  m  1  1  1  v  -7.86027609937e-05  3.20645675611e-05  -7.23729122386e-05
7.67470533664  3.1427402901  5.40902139066  m  1  1  1  v  -3.88807484504e-05  8.30944220808e-05  2.4383639409e-05
7.7089131797  7.52966094061  1.09336719333  m  1  1  1  v  1.79144807186e-05  7.02702050295e-06  -2.7043335317e-05
7.71919060191  7.47429919827  5.45579305159  m  1  1  1  v  2.50166300001e-05  7.39574296304e-05  -7.77798482702e-05
1.10465903835  1.07095740792  1.08019025448  m  1  1  1  v  0.000114821799648  0.000189807756197  7.7828112763e-05
1.1383245834  1.0281108115  5.45345959009  m  1  1  1  v  4.69941270218e-06  0.000160720661145  -3.90308924296e-05
1.13611166579  5.41532413926  1.12817557081  m  1  1  1  v  -0.000135938247498  -2.43151255034e-05  9.78279686565e-06
1.18207049762  5.37988398916  5.48737112701  m  1  1  1  v  -0.000155704830346  -1.89917216739e-05  -4.1799640607e-05
5.44890193665  1.02080717633  1.06354588958  m  1  1  1  v  3.23424604503e-05  -0.000106007947265  -2.66258088133e-05
5.48535002107  1.00298651096  5.40559257966  m  1  1  1  v  -2.68613956735e-05  -3.3826896859e-05  -6.51028659092e-05
5.51102622881  5.35178256818  1.09779097509  m  1  1  1  v  2.0847693234e-06  -8.01016943192e-05  -6.4274014352e-05
5.5102288322  5.3413966379  5.4498053827  m  1  1  1  v  -3.87710155716e-05  0.000119633952428  3.50987255209e-05
1.1479529202  3.21842611667  3.29040604202  m  1  1  1  v  1.3736937061e-05  0.000131492286023  9.65137880183e-06
1.17198043167  3.19775547284  7.64499197898  m  1  1  1  v  9.63746779367e-06  -0.000100756291784  -0.000113898925547
1.19317733276  7.56918267028  3.31799668398  m  1  1  1  v  -1.40239683734e-05  -5.07587150014e-05  -0.000190864575015
1.22205725401  7.50674443727  7.67432835219  m  1  1  1  v  8.04715402084e-05  -6.59735620617e-05  4.54621073694e-05
5.49870690885  3.17034807196  3.25146622479  m  1  1  1  v  -2.41590782675e-07  2.57855537393e-05  -0.000156463978734
5.51848770472  3.1461370913  7.60436578378  m  1  1  1  v  7.30203170446e-05  3.55247196816e-05  -9.77155601727e-05
5.5349122587  7.53073231853  3.27273342388  m  1  1  1  v  8.35267290226e-05  5.82753533433e-05  -3.18510611192e-05
5.55076790293  7.49260360692  7.64668606729  m  1  1  1  v  6.65690119484e-05  -0.000203811035113  -4.4083341233e-05

C #label
0 #magnetism
32 #number of atoms
0.428028740477  8.44862392069  8.81547900601  m  1  1  1  v  -0.000181625293565  0.000193742840558  0.00020313725017
0.334376375483  8.56835714231  4.29191782944  m  1  1  1  v  8.9248166455e-05  0.000159775076989  0.000131162405342
0.310522891466  4.10183214484  8.82481681821  m  1  1  1  v  -0.000151690548353  7.74118229404e-05  -0.000112279820138
0.21775416645  4.23025253169  4.34912337199  m  1  1  1  v  -4.59583422075e-05  -9.24700581102e-06  0.000181036218807
4.62992621113  8.48307259914  8.81456294257  m  1  1  1  v  -0.000221616730165  0.000184029044794  0.00014368135987
4.55046314476  8.5820727507  4.33642980999  m  1  1  1  v  -5.17938367309e-05  -0.000167790044361  0.00013534012324
4.5051986501  4.13700491932  8.84488789087  m  1  1  1  v  -0.000262698014143  -0.000140128348666  -0.000279904795348
4.40057507485  4.27983354514  4.34511351876  m  1  1  1  v  -0.000107211728136  0.000272402464512  0.000205595187192
0.176562227306  2.09994177082  2.14427185698  m  1  1  1  v  -4.98841168902e-05  7.23571653779e-05  7.20972885578e-06
0.21647600556  2.04561878516  6.51088995284  m  1  1  1  v  -0.000101619269484  0.000171624670878  7.73536311386e-05
0.22231475449  6.42622627698  2.16777610188  m  1  1  1  v  -0.000164003398361  0.000135919150889  0.000209084006658
0.270603729656  6.39117623226  6.52817968967  m  1  1  1  v  -4.4211824354e-05  2.17064535527e-05  0.00022867449654
4.38493510482  2.12123845123  2.17797831692  m  1  1  1  v  4.27155211458e-05  -0.000109219055682  0.000146245310324
4.41905748524  2.08465879195  6.50829367898  m  1  1  1  v  -0.000109550738549  -8.88527469173e-05  -0.000272268755841
4.4249312541  6.44094841629  2.1762607716  m  1  1  1  v  3.92127278796e-05  -0.000214888027989  0.000242135608003
4.44817212528  6.42192609238  6.54270292589  m  1  1  1  v  -0.000172447588418  -0.000209684796476  -0.000315034363814
2.1858083833  -0.0380275586057  2.15437946687  m  1  1  1  v  -0.000106433600281  -8.93340861625e-05  -9.14625737267e-05
2.2063904619  -0.070872477231  6.53253052655  m  1  1  1  v  2.82487388627e-05  0.000107291146336  -0.000183812875368
2.23348794764  4.29488345803  2.20377492671  m  1  1  1  v  -0.000106354200459  -0.00022042684222  0.000166902937265
2.26908584762  4.26702423009  6.54048763344  m  1  1  1  v  -0.000169996052617  9.61810213827e-05  -6.09689315189e-05
6.68227865681  8.61029409241  2.14736889895  m  1  1  1  v  -0.000152461009699  1.0060775303e-05  1.33312009262e-05
6.74482003046  8.53409651283  6.48333813782  m  1  1  1  v  -7.93692191324e-05  0.000109774067953  1.48247229608e-05
6.59712554731  4.25323795812  2.16531067339  m  1  1  1  v  0.000146309028197  9.755583279e-05  -0.000116618643003
6.60585312123  4.2386367823  6.51754562831  m  1  1  1  v  -4.2916410878e-05  0.000322598173795  0.000148366095132
2.31896961957  1.97915368468  8.84987178083  m  1  1  1  v  1.55947186605e-05  3.36299875049e-05  -0.000126587356113
2.219114079  2.10353799423  4.34536621563  m  1  1  1  v  -9.40257120601e-05  -0.000198281513425  9.23703805014e-05
2.23405365699  6.49713806973  0.0560385493558  m  1  1  1  v  -9.41291501537e-05  9.36046710921e-05  -0.000125343445344
2.25557434595  6.4557890929  4.39673885066  m  1  1  1  v  0.000140657400213  0.000119074859562  7.12654848053e-05
6.65592304617  1.96060326277  8.82568447814  m  1  1  1  v  -0.000129021305209  7.42731619152e-06  0.000137654703603
6.56298532578  2.07239014426  4.31018362182  m  1  1  1  v  8.69414041831e-05  -0.000161861685472  -2.41030710652e-05
6.57330582539  6.46941234369  0.0190913717016  m  1  1  1  v  -1.52413024703e-05  7.4885988936e-05  -0.000121785288767
6.63360582832  6.4222232928  4.35027232743  m  1  1  1  v  -3.31803592729e-05  4.73704614275e-05  3.96491048127e-05
