ATOMIC_SPECIES
Si 28.085 Si_ONCV_PBE-1.0.upf upf201
C 12.011 C_ONCV_PBE-1.0.upf upf201

NUMERICAL_ORBITAL
Si_gga_9au_100Ry_3s3p2d.orb
C_gga_9au_100Ry_3s3p2d.orb

LATTICE_CONSTANT
1.88972612546

LATTICE_VECTORS
8.53153018036 0 0 #latvec1
0.159475098372 8.67216269875 0 #latvec2
0.118504011684 -0.160511648809 8.85012887275 #latvec3

ATOMIC_POSITIONS
Cartesian

Si #label
0 #magnetism
32 #number of atoms
3.29583691762  1.02791795566  3.25608504717  m  1  1  1  v  2.01770079589e-05  -6.57608105145e-06  1.39095932127e-05
3.32681653354  0.992742826473  7.59179853572  m  1  1  1  v  8.30615591861e-06  -1.58144801691e-05  2.77912654796e-05
3.33684843101  5.38059540097  3.30182251644  m  1  1  1  v  -5.11394045277e-05  1.26380563744e-05  -1.14840056858e-05
3.35679844069  5.32708411579  7.63805952722  m  1  1  1  v  4.96141886441e-05  -5.51006930217e-05  4.26432159899e-06
7.64750284773  0.990969771258  3.22580720015  m  1  1  1  v  1.3981931597e-05  3.70634720726e-05  -2.74168264091e-05
7.67580173336  0.952188529928  7.56884368853  m  1  1  1  v  -7.73241070022e-08  -6.90050982369e-06  6.15865379865e-06
7.6848775777  5.3348422316  3.26194795695  m  1  1  1  v  -3.58965021797e-05  -5.97242840941e-06  -2.11758762705e-07
7.71607524533  5.30226898065  7.61358646463  m  1  1  1  v  2.34993472503e-05  2.34035127965e-05  -3.99428281672e-05
3.3103789002  3.23151168684  1.0925360273  m  1  1  1  v  4.81841960591e-05  1.20144715974e-05  -1.56858076568e-06
3.32789107217  3.18974488704  5.43822764243  m  1  1  1  v  4.06927322086e-06  -1.6765463499e-05  2.32956136015e-05
3.338157814  7.56026474851  1.14252092387  m  1  1  1  v  -3.95542596574e-06  4.13295679698e-05  -7.14952199395e-06
3.36990468377  7.53749521876  5.47634757958  m  1  1  1  v  1.46951061928e-05  -3.1339250761e-05  -2.41910611794e-05
7.64892313912  3.16770548035  1.06067546236  m  1  1  1  v  -6.47526364639e-06  -1.96149755154e-05  -2.81589208966e-05
7.67781666814  3.14130241637  5.41188553432  m  1  1  1  v  6.34691779131e-06  2.19435895493e-05  -9.08215779425e-06
7.70644178127  7.53110625158  1.09814806182  m  1  1  1  v  -9.59226192736e-06  -1.59733164086e-05  -4.43537373568e-05
7.70852606005  7.47517734964  5.45574481474  m  1  1  1  v  -5.22182108639e-07  -1.40244338753e-05  3.22663412498e-05
1.09874048359  1.06593069229  1.07791923885  m  1  1  1  v  -3.92118564325e-06  5.45610148414e-05  -4.34923931481e-07
1.13849075744  1.02178559678  5.44953361917  m  1  1  1  v  -2.20090657927e-05  -5.3545044529e-07  1.69975370252e-05
1.13265447509  5.41826919393  1.12540583275  m  1  1  1  v  2.00978039164e-07  6.24659718675e-06  -2.38537202989e-05
1.18233829827  5.37435489654  5.48373821076  m  1  1  1  v  1.69819284491e-05  3.52999992801e-05  -3.60001398044e-05
5.44787623983  1.02786452873  1.06981003435  m  1  1  1  v  4.89594820294e-06  -2.0523317423e-05  -5.42088695133e-06
5.4842714978  0.99623450046  5.40551702349  m  1  1  1  v  1.76307795907e-05  2.66566218539e-05  -1.40513262844e-05
5.51200115292  5.35747689318  1.09910520448  m  1  1  1  v  -1.39452949617e-05  1.09830283351e-05  -2.84603737904e-05
5.51607940805  5.33500768453  5.4580047172  m  1  1  1  v  2.5907775622e-05  1.544598437e-05  1.18033720827e-06
1.1416121427  3.22098983437  3.28620325755  m  1  1  1  v  2.15920527027e-06  2.49228455946e-05  -4.20510260939e-06
1.16436829802  3.20022321155  7.63817496805  m  1  1  1  v  1.17880211309e-05  -7.82244256971e-06  2.94142589223e-05
1.19189802435  7.57071013585  3.3218472131  m  1  1  1  v  -1.17780439914e-06  1.69858240707e-05  -3.73185656953e-06
1.20735284035  7.51869461723  7.68154956909  m  1  1  1  v  -4.55736898023e-05  5.10088508439e-05  -2.49860542668e-05
5.49425243978  3.17020432733  3.25001294835  m  1  1  1  v  1.22971176603e-05  -3.47424892603e-05  2.40722837765e-05
5.51530343304  3.14363705754  7.60675514305  m  1  1  1  v  -2.49934501961e-05  -5.18425507666e-06  -3.9190123572e-05
5.53100774145  7.52495766528  3.2761606007  m  1  1  1  v  -2.88503001617e-05  -1.29233618409e-05  3.42987239032e-05
5.55092395666  7.4939160789  7.64644777733  m  1  1  1  v  -6.06606577587e-05  1.41101308693e-06  3.926419669e-05

C #label
0 #magnetism
32 #number of atoms
0.448510761526  8.42961566141  8.80653143215  m  1  1  1  v  5.14033805791e-05  -3.53975179349e-05  5.01615598597e-05
0.354535892776  8.54809524565  4.2768913504  m  1  1  1  v  -3.49564946104e-05  -2.72899728935e-05  -3.96639917282e-05
0.335019443991  4.09259354512  8.82465841599  m  1  1  1  v  1.11855563644e-05  -5.54331374466e-05  -2.85202011965e-05
0.239523758399  4.22196755625  4.34073628032  m  1  1  1  v  1.02670149018e-05  -1.13812066724e-05  9.17421495083e-06
4.64079968974  8.47284889004  8.81538224371  m  1  1  1  v  -3.4564990281e-05  2.16206945678e-05  -2.69083881351e-05
4.55138647122  8.57385829848  4.32168311874  m  1  1  1  v  -6.61145009469e-06  -2.37718539561e-05  -2.21947894974e-05
4.3986824659  4.29791313388  0.00470353113942  m  1  1  1  v  2.42805038455e-05  2.72167701778e-05  1.51302756405e-06
4.39738748349  4.27439320655  4.34931006526  m  1  1  1  v  8.7689095425e-07  2.86096704786e-05  4.79244357726e-05
0.185895870444  2.09189870433  2.13149557933  m  1  1  1  v  -6.32455245672e-06  -2.95111270991e-05  -7.52984863861e-06
0.225997795154  2.03915699911  6.49783190821  m  1  1  1  v  4.28953101311e-05  1.90035897295e-05  5.74391270615e-05
0.237447900915  6.41999384425  2.16249191356  m  1  1  1  v  5.99544140987e-06  -4.4977418739e-05  -4.45290602256e-05
0.274273247423  6.39072252797  6.52575797609  m  1  1  1  v  -2.17049546518e-05  -7.70098582005e-05  2.80687337577e-05
4.39103684216  2.11763185486  2.17390576909  m  1  1  1  v  7.8077306335e-05  -4.91752671965e-05  1.00554887098e-05
4.41729233441  2.06830251057  6.51559093825  m  1  1  1  v  -3.2330219295e-05  9.54760314657e-06  6.06049947329e-05
4.43155102591  6.45196851058  2.18380087251  m  1  1  1  v  1.09070153235e-08  4.06399991487e-05  5.07395758176e-05
4.44612828006  6.42026299987  6.55004094717  m  1  1  1  v  1.92861628598e-05  4.80724403036e-06  9.74149433452e-07
2.35388370068  8.62951976001  2.15771695678  m  1  1  1  v  7.28418113835e-05  7.96953246256e-07  -1.48459162896e-05
2.21600841528  -0.080112138984  6.52449561496  m  1  1  1  v  5.35786845957e-06  3.08828604155e-05  -4.98106218971e-05
2.23848611449  4.30022081223  2.20182997986  m  1  1  1  v  1.5888781866e-05  -4.7517400958e-05  4.30355136038e-05
2.25602363945  4.26549759391  6.54778704125  m  1  1  1  v  -4.84089564358e-05  -2.56876038298e-05  -4.50283348848e-05
6.68795908976  8.60122849524  2.12943529034  m  1  1  1  v  -3.26623807208e-05  9.87912378403e-06  -4.73535894507e-05
6.73959694534  8.54068277511  6.4815008839  m  1  1  1  v  1.72878384077e-05  2.54460938929e-06  1.72216041491e-05
6.58281913323  4.25925871029  2.17312090798  m  1  1  1  v  -7.52639675946e-05  1.62555048001e-05  1.16192960044e-05
6.61080329659  4.2279077089  6.51729538616  m  1  1  1  v  -3.08144377278e-05  -2.69444770293e-05  9.29187560716e-05
2.19798279648  2.14244750776  0.010439209222  m  1  1  1  v  1.77852848625e-05  -7.08398904615e-07  -1.82397431004e-05
2.215068529  2.10008448393  4.35547412969  m  1  1  1  v  2.79222341792e-05  -6.29508099695e-05  3.99229741533e-05
2.23942125632  6.49421742841  0.0558125384513  m  1  1  1  v  1.61708984036e-05  -1.70515722088e-05  7.68769641182e-05
2.25299972127  6.45682127413  4.39617094022  m  1  1  1  v  -1.54466266158e-05  -4.75494084166e-06  -7.56634806296e-05
6.6616221157  1.95200341337  8.82606049788  m  1  1  1  v  1.4387864644e-05  -3.11479706246e-05  3.06544237109e-06
6.56571089664  2.0752653518  4.31348638409  m  1  1  1  v  -2.4696192286e-05  -2.63961180814e-05  6.35710686503e-05
6.58307058076  6.45806303368  0.0202470655397  m  1  1  1  v  4.6622299377e-05  4.52199978439e-05  -2.14374462784e-05
6.62165924026  6.41920758094  4.35740953774  m  1  1  1  v  -4.9160368437e-05  5.45753590777e-05  5.97246082081e-05
