ATOMIC_SPECIES
Si 28.085 Si_ONCV_PBE-1.0.upf upf201
C 12.011 C_ONCV_PBE-1.0.upf upf201

NUMERICAL_ORBITAL
Si_gga_9au_100Ry_3s3p2d.orb
C_gga_9au_100Ry_3s3p2d.orb

LATTICE_CONSTANT
1.88972612546

LATTICE_VECTORS
9.55494464348 0 0 #latvec1
-4.71821567139 7.97670595379 0 #latvec2
0.0790463246278 0.114009153146 10.2302970824 #latvec3

ATOMIC_POSITIONS
Cartesian

Si #label
0 #magnetism
36 #number of atoms
0.0138253498807  1.82141885543  2.52993966595  m  1  1  1  v  7.09363786961e-05  0.000260471748098  -0.000175238885305
3.15257088612  7.14665238257  2.48330462808  m  1  1  1  v  0.000268299751412  0.000120461978466  -0.000254427649433
-3.07395024899  7.17311358542  2.50310455973  m  1  1  1  v  0.000129498562392  -3.6311208269e-05  0.00013149315551
4.68480504011  6.27548580671  5.03015749934  m  1  1  1  v  -5.89704821996e-05  7.06057694942e-06  -1.90277464016e-05
1.55394970363  0.922745696352  5.07066057021  m  1  1  1  v  -6.18267408998e-05  -7.32205338523e-06  9.95969347648e-05
7.78120937148  0.929615870708  5.04908817318  m  1  1  1  v  -7.82753815782e-05  4.77438894314e-05  3.04871826566e-05
0.0307134133092  1.81400042854  7.6193007701  m  1  1  1  v  0.000237453357342  -2.75258124871e-05  8.01204344488e-05
3.15715935386  7.20052090466  7.57962358648  m  1  1  1  v  -5.85190345217e-05  -0.000305532594529  -3.97442895392e-05
-3.04028049423  7.20340202135  7.6124231161  m  1  1  1  v  -0.000136571360844  0.000124423899635  0.000238293319047
4.69526197664  6.30306811052  10.1210759793  m  1  1  1  v  -0.000177212924574  -0.000150390464353  0.00011941575015
1.58176122216  0.943621005209  10.1541382935  m  1  1  1  v  -7.38375082593e-05  0.000282904488718  6.34245627887e-05
7.80849027107  0.932887259994  10.1358397152  m  1  1  1  v  0.000109572765861  0.000231228898183  -0.00012796043649
-1.55637137201  4.48729374631  2.53865178455  m  1  1  1  v  0.000142907535268  1.58133539051e-05  0.000166427533456
1.57675078519  4.4850376256  2.51817218942  m  1  1  1  v  -4.21736620941e-05  -6.03322696964e-05  0.000161027517716
0.0363104245017  7.16257978906  2.48526449854  m  1  1  1  v  -6.70529334224e-05  0.000188065999949  0.000171512142106
6.23845901647  3.5801914828  5.05664082538  m  1  1  1  v  7.26113365828e-05  -0.000212883293353  -0.000131951161998
3.12119309832  3.58930553174  5.0429941815  m  1  1  1  v  -0.000236977249892  5.16394774824e-05  -0.000151076434731
4.67265264562  0.914688121793  5.08278975943  m  1  1  1  v  -0.000160489654513  -9.32181542077e-06  -0.000125340973155
-1.52277538923  4.52446088819  7.6097317924  m  1  1  1  v  -0.000211766666286  0.000181994063488  2.06366392789e-05
1.59221352548  4.51384944561  7.6182022528  m  1  1  1  v  5.86570173288e-05  -2.23841668378e-05  0.000185855624364
0.0580182490861  7.22088201759  7.58454211109  m  1  1  1  v  0.000155512016071  0.000203487321689  0.000145157645454
6.2475788113  3.62615115505  10.1137682712  m  1  1  1  v  -8.63436168323e-05  -3.78294156691e-06  3.28469992403e-05
3.15701278243  3.61475733377  10.1423900985  m  1  1  1  v  6.77585538982e-05  -0.000168247957994  4.8534817014e-05
4.69792886933  0.936230708312  10.1442441058  m  1  1  1  v  -7.88615996229e-05  0.000131784911116  3.8908909934e-06
3.11602120012  1.79984710128  2.51291240837  m  1  1  1  v  9.59462331906e-05  -0.000275145742703  0.000208193671349
6.20201996472  1.78883978091  2.51425835611  m  1  1  1  v  0.000264995686328  0.000112230323951  -3.26083335466e-05
4.65672229045  4.47267380678  2.50501601882  m  1  1  1  v  0.000146153706234  0.000188839250209  1.88052364862e-05
1.6054028035  6.28759420482  5.0379959392  m  1  1  1  v  -4.20602551448e-05  3.04417203745e-05  -1.97833914847e-06
-1.51617254298  6.29121805105  5.0399905351  m  1  1  1  v  0.000171035651762  0.000158925634218  -0.000139491066701
0.0437322370691  3.59843874086  5.06176776252  m  1  1  1  v  -0.000138242976182  0.00021803014484  -0.000161586428026
3.11936896019  1.80726994994  7.60896877928  m  1  1  1  v  -0.000247884855665  6.03144677839e-05  7.47917230202e-05
6.24019926472  1.82465065125  7.57763056645  m  1  1  1  v  0.000220504778169  -5.22860193932e-05  6.59897179506e-05
4.70182545931  4.51291309036  7.57120189124  m  1  1  1  v  -9.85978089772e-05  1.61649254645e-07  0.000214423932642
1.61292329322  6.29612724757  10.1345416544  m  1  1  1  v  -4.88608560211e-05  -7.2482520259e-05  1.5270109955e-05
-1.49961674667  6.31854399299  10.1279467265  m  1  1  1  v  -5.64847335133e-05  -3.86703718913e-06  7.0889046642e-05
0.06290079052  3.6301551621  10.1387445081  m  1  1  1  v  0.000133385529926  -6.94483478786e-05  -0.00015812256226

C #label
0 #magnetism
36 #number of atoms
-0.0101696881192  1.82031093403  4.43896674361  m  1  1  1  v  0.000167172241123  5.79845218986e-05  2.9270421815e-05
3.12968159947  7.14300259198  4.37275912806  m  1  1  1  v  0.000250549157335  4.0269539668e-05  -0.000416509684274
-3.08437591937  7.1873537071  4.42223838572  m  1  1  1  v  -0.000333510330825  0.000249666691685  0.000318398690216
4.73015886769  6.2802325111  6.91722622068  m  1  1  1  v  2.31833783274e-05  -0.000359705538248  0.000189365514708
1.56497176664  0.956719578798  6.96892003987  m  1  1  1  v  -0.000235286079004  -0.000274267557726  -0.000281773299619
7.80464625246  0.921679326949  6.93832580939  m  1  1  1  v  -8.03201944315e-05  -0.00038951186884  0.000144782332272
0.00847527247863  1.83131204099  9.53852839393  m  1  1  1  v  -4.42427823423e-05  -0.000118916831048  0.000143459655931
3.15451608635  7.19255754374  9.47669760128  m  1  1  1  v  -0.000172502686815  0.000301773031003  1.74016459887e-05
-3.0317522324  7.21503721869  9.50330207382  m  1  1  1  v  0.000256931026723  0.00018053270686  4.38619263741e-05
4.71566580012  6.23482564472  1.85306381055  m  1  1  1  v  -7.25313416191e-05  -1.32404500766e-05  0.000422072746462
1.56317910175  0.90842723218  1.90288648261  m  1  1  1  v  0.000137773297758  0.000177895624099  -4.38943472999e-05
7.77555319336  0.898138806383  1.88681724702  m  1  1  1  v  0.000224969062893  -8.14566811136e-05  2.20137487417e-05
-1.55888443209  4.49381723718  4.43437799204  m  1  1  1  v  -0.000288271974014  -0.000423252114421  -0.000132353253204
1.57262779649  4.52893860416  4.4005062853  m  1  1  1  v  -0.000435638422223  7.21911811956e-05  -1.97732689644e-05
0.0432218250959  7.19422094755  4.42661169211  m  1  1  1  v  0.000202376784228  -0.000178567974835  -0.000337446950004
6.24954400219  3.62381829538  6.96246519019  m  1  1  1  v  -2.65175504007e-05  0.000251941422359  -0.000262448807923
3.11806020347  3.58565546259  6.95300308151  m  1  1  1  v  7.85173394932e-05  -0.000255126397875  0.000140199408333
4.68182174911  0.928459906587  6.94268920663  m  1  1  1  v  0.000199121217013  9.83468732996e-05  -3.06668656136e-05
-1.53851589262  4.50883570925  9.52048789113  m  1  1  1  v  -0.000319821327166  -0.000137029295318  -0.000311358994973
1.6123435607  4.54415926348  9.5007964992  m  1  1  1  v  0.000244325646056  0.000256492120956  0.000158368321863
0.0609624306365  7.19272861599  9.51485811641  m  1  1  1  v  0.000172049309479  -9.71957769339e-05  0.000286324304093
6.24066539321  3.58224440033  1.86373316804  m  1  1  1  v  0.000217214652032  0.000102490323394  -0.00033118867656
3.12226663961  3.56572756048  1.86275308502  m  1  1  1  v  0.000223115745399  -0.000154578494664  -0.000239695169331
4.67342334594  0.890452285933  1.89156600108  m  1  1  1  v  6.04505793804e-05  -5.99510246408e-05  -0.00016348565404
3.12180763032  1.82323379602  4.4356359323  m  1  1  1  v  3.34450621146e-05  9.64431802805e-05  -0.000259195945213
6.24688849514  1.79063300045  4.41141109398  m  1  1  1  v  0.000206614944921  5.61011920949e-05  1.81888083593e-05
4.69364985015  4.4892702051  4.40830754331  m  1  1  1  v  -4.71734158013e-05  8.8604459059e-05  -0.000266374978917
1.60631104873  6.29398661476  6.97555835594  m  1  1  1  v  6.84959060358e-05  -0.000214580024684  0.000270720788265
-1.5145399405  6.31032635744  6.98450471998  m  1  1  1  v  3.42932776669e-05  -1.1696770619e-05  0.000147378541427
0.0410652566064  3.61435335125  6.972618799  m  1  1  1  v  0.000202506514149  -0.000261392174677  -4.94615525078e-05
3.14017583041  1.84147090433  9.5009501942  m  1  1  1  v  -0.000136918807721  -9.12742863547e-05  -0.000116542694753
6.25615648995  1.80725918256  9.49871038408  m  1  1  1  v  0.000157100916755  -0.000372717532566  -3.18940014587e-05
4.69975798157  4.50569004405  9.49196878873  m  1  1  1  v  -0.00015959074381  -0.000155189368251  0.000310183094392
1.58615149793  6.25721739181  1.86946033638  m  1  1  1  v  0.000104590115749  -9.56356273469e-05  0.000183488827661
-1.5230587903  6.23717608922  1.90452546286  m  1  1  1  v  -3.37226424163e-05  -4.27531910767e-05  0.000277151662091
0.0117072293145  3.5921163  1.86892696384  m  1  1  1  v  -0.000270484814009  0.000157132573835  -0.000154368468515
