INPUT_PARAMETERS
#Parameters (Accuracy)
ecutwfc			100

basis_type		lcao

calculation		relax
relax_nmax			100
force_thr_ev		0.01

dft_functional pbe

mixing_gg0 0

pseudo_dir	../../../00_psp_orb
orbital_dir	../../../00_psp_orb
