ATOMIC_SPECIES
C 12 C_ONCV_PBE-1.0.upf
O 16 O_ONCV_PBE-1.0.upf

NUMERICAL_ORBITAL
C_gga_7au_100Ry_2s2p1d.orb
O_gga_7au_100Ry_2s2p1d.orb

LATTICE_CONSTANT
1.8897259886

LATTICE_VECTORS
15 0.000000 0.000000 
0 15 0.000000 
0.000000 0.000000 15

ATOMIC_POSITIONS
Cartesian #(Unit is LATTICE_CONSTANT)
C
0.0
1
0 0 0
O
0.0
1
0 0 1.129
