ATOMIC_SPECIES
Si 28.085 Si_ONCV_PBE-1.0.upf upf201
C 12.011 C_ONCV_PBE-1.0.upf upf201

NUMERICAL_ORBITAL
Si_gga_9au_100Ry_3s3p2d.orb
C_gga_9au_100Ry_3s3p2d.orb

LATTICE_CONSTANT
1.88972612546

LATTICE_VECTORS
9.17206558249 0 0 #latvec1
-4.7552269594 8.18517441048 0 #latvec2
-0.258388597072 -0.205833508923 10.5596334415 #latvec3

ATOMIC_POSITIONS
Cartesian

Si #label
0 #magnetism
36 #number of atoms
-0.038818143906  1.78920384227  2.57664533182  m  1  1  1  v  2.08222112447e-05  -5.34848695057e-06  1.34555746122e-05
3.02516732526  7.22594978025  2.65806326383  m  1  1  1  v  8.80550339023e-06  -1.47003972316e-05  2.75078094137e-05
-3.2366194643  7.1810345966  2.59222845996  m  1  1  1  v  -5.13704579227e-05  1.41017324051e-05  -1.22500325592e-05
4.5707067419  6.32850488339  5.26032459596  m  1  1  1  v  5.06210832341e-05  -5.44693153308e-05  3.69179263889e-06
1.49964807091  0.86861984629  5.1600799863  m  1  1  1  v  1.45510166814e-05  3.88272604189e-05  -2.83786180457e-05
7.76498654705  0.944981944989  5.26159438479  m  1  1  1  v  3.19016495298e-07  -5.67690194237e-06  5.60940028368e-06
-0.117722131472  1.75063605616  7.7211466624  m  1  1  1  v  -3.59402677604e-05  -4.7374172969e-06  -8.39284815119e-07
2.94707419274  7.17490848256  7.8263702885  m  1  1  1  v  2.41853717426e-05  2.49994627707e-05  -4.10585253683e-05
-3.28990685104  7.12755357656  7.73231536601  m  1  1  1  v  4.91735204922e-05  1.34704857126e-05  -2.21277793633e-06
4.48919554142  6.27266458541  10.4012113741  m  1  1  1  v  4.51656259477e-06  -1.56630651859e-05  2.29569199702e-05
1.41843138045  0.808757579046  10.3065646022  m  1  1  1  v  -3.60673516164e-06  4.31457733531e-05  -7.86229155721e-06
7.68623128483  0.870570098629  10.3820487779  m  1  1  1  v  1.52729539727e-05  -3.04159189209e-05  -2.5113218204e-05
-1.64205604468  4.4800140003  2.59819051577  m  1  1  1  v  -6.1575338024e-06  -1.85475888336e-05  -2.91298305641e-05
1.49616006616  4.51427756687  2.62982412969  m  1  1  1  v  6.82219232602e-06  2.35216016119e-05  -9.81867343464e-06
-0.106010374073  7.20124485046  2.63220323076  m  1  1  1  v  -9.31283028812e-06  -1.4861185074e-05  -4.55236308994e-05
6.15681508514  3.62881109999  5.25288279817  m  1  1  1  v  -1.31307426207e-07  -1.28883568417e-05  3.20378699329e-05
3.0069319001  3.5924807958  5.22275156151  m  1  1  1  v  -3.57207413218e-06  5.65397935133e-05  -1.06519198904e-06
4.6070107167  0.908563717188  5.19332977637  m  1  1  1  v  -2.18821980159e-05  7.66364199516e-07  1.65814596405e-05
-1.70492780352  4.41266593828  7.71259418862  m  1  1  1  v  6.00738108406e-07  7.63174208248e-06  -2.47717324543e-05
1.40042939627  4.46718016797  7.75856287201  m  1  1  1  v  1.7587874155e-05  3.70421200359e-05  -3.70673936403e-05
-0.168351937793  7.15383065759  7.77515748944  m  1  1  1  v  5.3533948387e-06  -1.94670914353e-05  -6.11241697166e-06
6.09697183878  3.58876951503  10.3775906623  m  1  1  1  v  1.8244697657e-05  2.82925424105e-05  -1.48488975351e-05
2.9561164011  3.54255890325  10.3506396684  m  1  1  1  v  -1.37193485462e-05  1.24263692237e-05  -2.94349873755e-05
4.55454062635  0.854925468984  10.347232705  m  1  1  1  v  2.66233922009e-05  1.69441610939e-05  5.69915681345e-07
3.07570530432  1.81444621628  2.6289148835  m  1  1  1  v  2.58302585565e-06  2.65374634387e-05  -4.88169442525e-06
6.20984532054  1.84741435465  2.67064129882  m  1  1  1  v  1.23301498859e-05  -6.6101623716e-06  2.91507443929e-05
4.62313958008  4.55290444144  2.66774041368  m  1  1  1  v  -7.94985273518e-07  1.85029206306e-05  -4.40263366491e-06
1.42374267373  6.2775208277  5.21708196469  m  1  1  1  v  -4.57363578911e-05  5.29439844793e-05  -2.59179792814e-05
-1.69230306436  6.24650857579  5.1876766122  m  1  1  1  v  1.28455016267e-05  -3.38609726261e-05  2.37431330036e-05
-0.0995500332948  3.56146310863  5.15913181938  m  1  1  1  v  -2.49032512124e-05  -3.9395597677e-06  -4.0296572377e-05
3.01251696455  1.77005094472  7.76442704047  m  1  1  1  v  -2.88074898566e-05  -1.177375606e-05  3.40952242417e-05
6.15628935059  1.8096855269  7.81326422067  m  1  1  1  v  -6.10086977136e-05  2.73674370865e-06  3.91217072301e-05
4.5506725348  4.49768060877  7.82139343178  m  1  1  1  v  3.16797747136e-05  -2.13812044224e-05  3.20890412082e-05
1.3626080181  6.21483692626  10.3723881191  m  1  1  1  v  -2.54901981885e-05  -1.6014034434e-05  -2.73751988562e-05
-1.76443019098  6.20276244826  10.3038485417  m  1  1  1  v  5.05569824879e-06  -3.46447231809e-05  -1.99980436516e-05
-0.185033122442  3.4951093521  10.3075144192  m  1  1  1  v  4.44762661357e-06  -5.48247991553e-06  4.95554440045e-06

C #label
0 #magnetism
36 #number of atoms
-0.0819396034171  1.76310817119  4.50453443676  m  1  1  1  v  -3.45923957259e-05  2.31947392564e-05  -2.78639326482e-05
2.99545496924  7.21810345309  4.60141392752  m  1  1  1  v  -6.29539355816e-06  -2.27555423688e-05  -2.3092418558e-05
-3.26883359809  7.14424755338  4.52961761132  m  1  1  1  v  2.49761263203e-05  2.88595732134e-05  9.06693765834e-07
4.5442474688  6.30158732489  7.19293605579  m  1  1  1  v  1.28495588891e-06  3.02695879223e-05  4.78883536891e-05
1.46074899589  0.840881192589  7.09604266063  m  1  1  1  v  -6.00497084141e-06  -2.85653333107e-05  -8.24729123228e-06
7.72157262397  0.915662346738  7.16902833984  m  1  1  1  v  4.3819650622e-05  2.05454783474e-05  5.7519950912e-05
-0.164035666691  1.73116276227  9.64635799616  m  1  1  1  v  6.4663973941e-06  -4.42216575238e-05  -4.57011079404e-05
2.95154328349  7.16601659043  9.73465412613  m  1  1  1  v  -2.15743502958e-05  -7.66476759401e-05  2.7788686913e-05
-3.34965519705  7.11494910792  9.6854473141  m  1  1  1  v  7.94339240274e-05  -4.84710844697e-05  9.5541151639e-06
4.61808542757  6.37316116435  2.04677867565  m  1  1  1  v  -3.2330166362e-05  1.09733071286e-05  6.07247172409e-05
1.53223618829  0.898615228888  1.96402519965  m  1  1  1  v  4.08331703428e-07  4.2447731878e-05  5.07380830409e-05
7.80356645946  0.964839711735  2.02457469672  m  1  1  1  v  1.99204204328e-05  6.17470375692e-06  3.61194500694e-07
-1.66855477816  4.45810970526  4.52558275128  m  1  1  1  v  7.41341011426e-05  2.11513898427e-06  -1.56532505777e-05
1.46922002414  4.46425438399  4.55971742661  m  1  1  1  v  5.82099065719e-06  3.25707082865e-05  -5.10475635618e-05
-0.123762951968  7.18136756011  4.57524255011  m  1  1  1  v  1.64812962036e-05  -4.67928482166e-05  4.29393618875e-05
6.13480505491  3.6119546577  7.1817164114  m  1  1  1  v  -4.86064611245e-05  -2.46948308442e-05  -4.62065171308e-05
3.00204386869  3.57961124303  7.13893191735  m  1  1  1  v  -3.26664090176e-05  1.13089011225e-05  -4.85603418362e-05
4.5881951641  0.889189358286  7.14655795442  m  1  1  1  v  1.78975427945e-05  3.88426838035e-06  1.68082798518e-05
-1.74918065064  4.41751101386  9.64541208246  m  1  1  1  v  -7.5791436763e-05  1.77636280098e-05  1.11371367816e-05
1.39291302154  4.44505652077  9.69158721709  m  1  1  1  v  -3.07957605584e-05  -2.59671471023e-05  9.34355141043e-05
-0.184456036262  7.12093937527  9.72016213527  m  1  1  1  v  1.84011013175e-05  5.91290742065e-07  -1.9088776954e-05
6.20135356832  3.66977273316  2.03975439259  m  1  1  1  v  2.86626021822e-05  -6.24158857762e-05  3.97885790174e-05
3.07616992399  3.64468737085  2.00836228864  m  1  1  1  v  1.67668790751e-05  -1.5952689281e-05  7.71966184706e-05
4.67070653161  0.937463644596  2.01660962282  m  1  1  1  v  -1.52391268922e-05  -3.50497059733e-06  -7.72180734408e-05
3.0460603587  1.78719800974  4.55280525632  m  1  1  1  v  1.49619373817e-05  -3.02222885472e-05  2.47818291774e-06
6.16811168163  1.81410907825  4.6011679717  m  1  1  1  v  -2.4602340928e-05  -2.54120505301e-05  6.37272349724e-05
4.59158347473  4.52422847755  4.60773955486  m  1  1  1  v  4.75924329625e-05  4.70840044982e-05  -2.23257699486e-05
1.394804354  6.26230929124  7.12946883142  m  1  1  1  v  -4.93671056398e-05  5.65543139957e-05  5.98335135065e-05
-1.7287622233  6.2431999365  7.11104843462  m  1  1  1  v  3.89978628582e-05  -3.1159385664e-05  2.32768776533e-05
-0.127478361136  3.53896170379  7.10438693987  m  1  1  1  v  -3.89061135847e-05  2.41624980458e-05  7.0394117947e-06
2.97824706407  1.73863013652  9.70206705516  m  1  1  1  v  2.3461407892e-05  -4.56840597088e-05  6.14269478324e-07
6.12027856375  1.77625350843  9.72443280379  m  1  1  1  v  -4.13939429452e-05  -1.0535026747e-05  1.99978088189e-05
4.51420423804  4.46798409907  9.74714235597  m  1  1  1  v  3.34761223275e-06  -2.0306499026e-05  -3.42453865083e-05
1.49844413094  6.32274460478  2.02157947368  m  1  1  1  v  -1.90023527478e-05  6.25243107546e-05  6.97428300338e-05
-1.65973360423  6.29509852005  1.95826295215  m  1  1  1  v  3.04790471808e-05  -4.47570255169e-05  3.52521851059e-05
-0.0574127352179  3.60876937742  1.9645896321  m  1  1  1  v  -3.61640007638e-05  -1.8604412712e-05  -4.22262413575e-05
