ATOMIC_SPECIES
Si 28.085 Si_ONCV_PBE-1.0.upf upf201
C 12.011 C_ONCV_PBE-1.0.upf upf201

NUMERICAL_ORBITAL
Si_gga_9au_100Ry_3s3p2d.orb
C_gga_9au_100Ry_3s3p2d.orb

LATTICE_CONSTANT
1.88972612546

LATTICE_VECTORS
9.17206558249 0 0 #latvec1
-4.7552269594 8.18517441048 0 #latvec2
-0.258388597072 -0.205833508923 10.5596334415 #latvec3

ATOMIC_POSITIONS
Cartesian

Si #label
0 #magnetism
36 #number of atoms
-0.0278589927911  1.79082581342  2.57763164312  m  1  1  1  v  6.43194433605e-05  8.45955315769e-06  -2.0979066901e-05
3.02309357593  7.22859163276  2.66067643087  m  1  1  1  v  2.7923801509e-05  2.27584898687e-05  -2.48586243461e-05
-3.23400663421  7.18426521744  2.59473245805  m  1  1  1  v  6.4205414821e-06  1.54646158516e-05  9.66247737403e-05
4.56610798961  6.32910167485  5.26093699502  m  1  1  1  v  -0.000126435860719  4.65613670698e-05  9.04296703359e-05
1.49947175531  0.878278134348  5.16202449175  m  1  1  1  v  -7.92826942896e-05  2.10796619588e-05  -5.24117659806e-05
7.75941363828  0.948205744424  5.25998608613  m  1  1  1  v  -0.000146462277612  0.00012126998665  -8.89846426445e-05
-0.115208268833  1.75174694803  7.72613533528  m  1  1  1  v  7.3386863267e-05  5.35769399832e-05  5.87813114855e-05
2.94071036883  7.17946931389  7.81679575851  m  1  1  1  v  -9.76161296524e-05  6.79672519384e-05  -0.000104016959766
-3.28456390434  7.13430555162  7.73637771343  m  1  1  1  v  -3.56426617186e-05  8.33996966177e-05  -1.97102842531e-05
4.48263122932  6.27594235044  10.4022092566  m  1  1  1  v  -8.97577719404e-05  -8.26642260549e-05  9.61046584337e-06
1.41239326297  0.803093329433  10.3121071634  m  1  1  1  v  -0.000117372186383  -4.67852893072e-05  -3.37173033876e-05
7.6824884036  0.861465865371  10.3819791387  m  1  1  1  v  2.90560474557e-05  -5.93474842754e-05  -6.02837515989e-06
-1.63720576968  4.4833385953  2.60085562926  m  1  1  1  v  -0.00010023608311  -6.25890928905e-05  0.000160700038326
1.50109012012  4.51957384238  2.62624381699  m  1  1  1  v  0.000141480704337  -0.000172439377431  -2.3300812978e-05
-0.107507632574  7.20094530152  2.62311205779  m  1  1  1  v  1.31989217535e-05  -8.59248546729e-06  -0.000214327677376
6.1576517382  3.6264012174  5.25549295483  m  1  1  1  v  -7.84891212066e-05  8.44912184177e-05  0.000186692167842
3.00769277935  3.59079173743  5.22072246183  m  1  1  1  v  0.000128404195503  -0.000106644901296  -1.99073317757e-05
4.60214654929  0.912635966761  5.19818801245  m  1  1  1  v  -6.94447469171e-05  6.83029035543e-06  3.95727248283e-05
-1.70183761575  4.42267905283  7.71521484765  m  1  1  1  v  0.000127042896546  -3.63914096031e-05  9.16504493778e-05
1.40234595591  4.47063365989  7.75675634387  m  1  1  1  v  1.24016169382e-05  9.83708571396e-05  1.89481166531e-05
-0.170521296258  7.16130540833  7.7769173185  m  1  1  1  v  -2.63033707495e-05  0.000223163846037  -3.87750981149e-05
6.09389898541  3.58588534038  10.3759754105  m  1  1  1  v  -0.000124699925487  2.99970724151e-05  -8.54264031505e-06
2.95646170288  3.53948333854  10.3559230445  m  1  1  1  v  0.000108405938053  0.00012361981145  0.000106732249899
4.5552220372  0.856352304292  10.3424184466  m  1  1  1  v  3.34207044458e-05  2.34350993578e-05  -4.99311031387e-05
3.07711466218  1.8151914593  2.62868764083  m  1  1  1  v  2.27229104105e-05  6.17587996708e-05  0.000109864019965
6.20281547666  1.84802288925  2.66943790557  m  1  1  1  v  -0.000176337630599  1.57613006955e-05  -2.98493095479e-06
4.6254722323  4.54517720095  2.67158405434  m  1  1  1  v  -3.11232518608e-06  -8.85001635732e-05  0.000118856850131
1.42379049601  6.28227818465  5.21085772361  m  1  1  1  v  1.2376969334e-05  8.01006437599e-05  -7.94014014861e-05
-1.69285566173  6.24500454095  5.19465653639  m  1  1  1  v  4.60944387431e-05  -7.79154031024e-05  6.79355899297e-05
-0.0944531713798  3.56075906633  5.16075094578  m  1  1  1  v  0.000118876971036  -9.41164425817e-05  -5.09333209188e-05
3.00776904034  1.76563507137  7.76699760694  m  1  1  1  v  -9.93046000421e-05  -0.000120416983368  0.000169107312819
6.15960315033  1.81379856874  7.80663063731  m  1  1  1  v  7.99057635958e-05  2.30426986269e-05  3.5783823933e-06
4.54834213436  4.49317504654  7.81299806002  m  1  1  1  v  5.11695480865e-05  -7.61796196091e-05  -9.58916578219e-05
1.36459702563  6.22171917207  10.376313126  m  1  1  1  v  -8.54929811544e-05  -3.97022264451e-05  -4.29529703781e-05
-1.76167068299  6.20338193226  10.3098449025  m  1  1  1  v  -0.000167987056949  -4.90720947424e-06  1.54029950178e-05
-0.181161254761  3.49841604334  10.3148148288  m  1  1  1  v  -4.56935602435e-05  5.2836239124e-05  4.99627870099e-05

C #label
0 #magnetism
36 #number of atoms
-0.0777049574308  1.77384219722  4.49595160474  m  1  1  1  v  6.42996407289e-05  0.000141536758521  -7.61493345315e-05
2.98620079765  7.21743562509  4.60418230025  m  1  1  1  v  -0.000198226485842  0.000109512894897  3.56509725736e-05
-3.26321154457  7.15658611847  4.53065706025  m  1  1  1  v  0.000164957036018  -0.000113199583817  0.000209581331748
4.53449611407  6.30882840765  7.17434169953  m  1  1  1  v  -0.000336174626456  -0.000131163802391  3.12532888607e-05
1.46246952062  0.839201972155  7.1032620917  m  1  1  1  v  0.00010681701405  0.000146929205746  -9.37041696683e-05
7.72021396878  0.908915824714  7.15530617697  m  1  1  1  v  -0.000146061184835  0.000209417162616  -7.07046774038e-05
-0.172575973109  1.72694208521  9.64603261304  m  1  1  1  v  -0.000210054092808  0.000103181919775  -0.000162630482567
2.93680817904  7.15383367681  9.72670964735  m  1  1  1  v  -0.000155967401738  -5.91437075416e-05  -0.000174610641558
-3.34136576312  7.12430558685  9.68389153606  m  1  1  1  v  0.000240198528344  8.08205426756e-05  0.000107511707056
4.6101050757  6.35917078846  2.03215694402  m  1  1  1  v  -4.56715893931e-05  -0.000143265322643  -0.000289950929982
1.52998464039  0.903232680283  1.95258459014  m  1  1  1  v  -0.000162837827103  -0.000127846089627  -8.84455493495e-05
7.79656708853  0.961463563451  2.02502954846  m  1  1  1  v  -7.78401695555e-05  -6.97494159916e-05  -8.86833520193e-05
-1.66898067511  4.47034100315  4.5292253692  m  1  1  1  v  0.000221052620513  0.000122576465504  -0.000178354141183
1.45507563601  4.47335578913  4.55603641307  m  1  1  1  v  -1.94602051165e-05  -8.38736994671e-05  -0.000191024825442
-0.129133317198  7.18201434762  4.58071787688  m  1  1  1  v  3.71269857092e-05  4.29070242001e-05  -3.04517571385e-05
6.1067302709  3.61293152292  7.18701719301  m  1  1  1  v  -0.000195841980937  -8.4165354562e-05  0.000203366514252
3.00250236186  3.58237965453  7.13228506962  m  1  1  1  v  -0.000105304282285  3.11088812957e-05  6.82376975961e-06
4.58340174029  0.893735547959  7.14040741831  m  1  1  1  v  9.92240534361e-05  0.000223490986545  -9.37918158992e-05
-1.73469937259  4.40963178118  9.65346887703  m  1  1  1  v  -3.42716742694e-05  8.38983031901e-05  0.000238971273756
1.38389616671  4.44655185742  9.68737684236  m  1  1  1  v  -1.1895060436e-05  -0.000224355051057  -0.000133988228928
-0.179654855598  7.1239905182  9.73222504581  m  1  1  1  v  0.000159758262189  -1.5069551583e-05  8.24028649044e-05
6.19404555309  3.66939711039  2.02452337216  m  1  1  1  v  -5.19369549158e-05  -7.69105808773e-05  3.09131905763e-05
3.07460466706  3.64386242039  2.00169992216  m  1  1  1  v  0.000142851462153  -0.000221513468152  -0.000180816533271
4.67807311248  0.930435080495  2.00910737853  m  1  1  1  v  0.000307930268766  9.22144739458e-05  8.24923851406e-05
3.03802043979  1.79075699389  4.54850034236  m  1  1  1  v  -0.00023760254348  0.000140281600485  0.000134767837306
6.16516966784  1.80604033735  4.59560167188  m  1  1  1  v  -0.000293286439485  -0.000259273099276  -0.000201843505167
4.58614871431  4.52997172436  4.59429452445  m  1  1  1  v  -2.02584470319e-05  -3.24759695166e-05  -0.000153161009473
1.39667930353  6.26646737796  7.13539957433  m  1  1  1  v  -2.66671705251e-05  7.20891414837e-05  7.01083584831e-05
-1.73064727499  6.24799408837  7.11191413022  m  1  1  1  v  0.000234174903893  -6.58450615036e-05  0.000112631009466
-0.124362682221  3.54618896664  7.10849119397  m  1  1  1  v  0.000112594416305  0.000278357636127  -0.000128426451502
2.9724360453  1.7393422354  9.70758942301  m  1  1  1  v  -6.77805806709e-05  8.04724799055e-05  0.000185171204322
6.11959851416  1.77054929954  9.73232436131  m  1  1  1  v  4.85354423696e-06  -0.000176741312233  -0.00013742322627
4.52134231709  4.45928640766  9.76162642237  m  1  1  1  v  0.000126269880832  -2.12974934358e-05  -2.33033929967e-05
1.49432326363  6.32086923027  2.01561589545  m  1  1  1  v  2.24028268801e-05  -4.05516186423e-05  -0.000328956777857
-1.65359790122  6.28566572299  1.95881515897  m  1  1  1  v  0.000155411406083  -0.000289354148287  0.000176866048969
-0.0665897712603  3.60956630342  1.95336353305  m  1  1  1  v  -6.36910827923e-05  -0.000244661511257  -6.57600370256e-05
