ATOMIC_SPECIES
Si 28.085 Si_ONCV_PBE-1.0.upf upf201
C 12.011 C_ONCV_PBE-1.0.upf upf201

NUMERICAL_ORBITAL
Si_gga_9au_100Ry_3s3p2d.orb
C_gga_9au_100Ry_3s3p2d.orb

LATTICE_CONSTANT
1.88972612546

LATTICE_VECTORS
9.27633565361 0 0 #latvec1
-4.48040523744 8.16167576415 0 #latvec2
0.00474731433942 -0.18947438686 9.84523937228 #latvec3

ATOMIC_POSITIONS
Cartesian

Si #label
0 #magnetism
36 #number of atoms
0.0291616717173  1.77069378635  2.54060310984  m  1  1  1  v  7.84653501621e-05  0.000252103433094  -0.00015521566013
3.15662888192  7.04736341799  2.59277428446  m  1  1  1  v  0.000264896215252  0.000151663129732  -0.000245767682574
-3.00302508583  7.09518551352  2.58037794818  m  1  1  1  v  0.00014439789861  6.50594760578e-06  0.000140756508115
4.64799901579  6.11104054291  5.08125900401  m  1  1  1  v  -6.37504112091e-05  1.98473053581e-05  -1.34448654253e-05
1.52960684147  0.819410900629  5.05340539213  m  1  1  1  v  -6.47389283494e-05  -3.43873257367e-05  0.000103134195111
7.67945192264  0.782582171172  5.05369553193  m  1  1  1  v  -9.55311938601e-05  2.40798249222e-05  3.11799247368e-05
0.00897209760038  1.69419357818  7.59255356025  m  1  1  1  v  0.000252657818649  -4.3817662281e-05  6.95114919213e-05
3.1255290472  6.99980856419  7.61106639941  m  1  1  1  v  -4.54701466169e-05  -0.000271145460373  -4.69300876739e-05
-2.9964061662  7.07740144247  7.64381334508  m  1  1  1  v  -0.000117060627526  0.000143650134758  0.000225911980567
4.64455524523  6.26024278462  0.282826923384  m  1  1  1  v  -0.000189400685758  -0.000141084431611  4.13682069003e-05
1.53608415713  0.965853978063  0.220362763605  m  1  1  1  v  -8.05718732598e-05  0.000244868740084  -6.3290142492e-06
7.69509993288  0.904977003047  0.206848321986  m  1  1  1  v  8.76020768547e-05  0.000191026876181  -0.000184041397375
-1.5160781433  4.40133678422  2.57987295067  m  1  1  1  v  0.000158067755532  1.89005732516e-05  0.000184765930616
1.5763033922  4.41456405801  2.5723748562  m  1  1  1  v  -3.54622492973e-05  -6.80936279063e-05  0.000182347076187
0.061621878181  7.07199356803  2.56818463995  m  1  1  1  v  -5.41487800781e-05  0.000225100916506  0.00018053308691
6.18341106394  3.4371339364  5.08711001801  m  1  1  1  v  5.79117913773e-05  -0.000216682957042  -0.000132471176744
3.08999363126  3.46297220258  5.0678841374  m  1  1  1  v  -0.000232930339495  5.29686058625e-05  -0.000153600469199
4.5963959671  0.79210314036  5.04485081285  m  1  1  1  v  -0.00016013160494  -4.13877191711e-05  -0.000113321727249
-1.51300567398  4.37632173192  7.57551644943  m  1  1  1  v  -0.000195927271099  0.000183287863325  3.01651966407e-05
1.59469540027  4.3551400063  7.59684340228  m  1  1  1  v  5.3711427827e-05  -2.88979183886e-05  0.000192240867651
0.0801183903615  7.03928060628  7.61336398929  m  1  1  1  v  0.000160216699037  0.000242953035482  0.000131164316999
6.1626073499  3.58164067515  0.249644552861  m  1  1  1  v  -9.93550567929e-05  -3.77308470039e-06  -4.87211481528e-05
3.11017146744  3.61224557203  0.25853191883  m  1  1  1  v  6.39358329335e-05  -0.000174529744933  -3.1967993748e-05
4.62059138414  0.929181715509  0.208878926524  m  1  1  1  v  -9.151660085e-05  9.34639455254e-05  -6.36860929698e-05
3.0939890115  1.72531815511  2.53382753469  m  1  1  1  v  9.29089277586e-05  -0.000284147275606  0.000221808032871
6.1355880786  1.68550156909  2.53664469752  m  1  1  1  v  0.000261254676103  0.000102610549174  -9.26742416766e-06
4.63564825838  4.36513676136  2.57091709369  m  1  1  1  v  0.000139624530411  0.000187023832913  4.22191329859e-05
1.608021543  6.15451076005  5.08736509027  m  1  1  1  v  -3.98535936991e-05  3.52881650905e-05  -3.83398357748e-07
-1.46173967217  6.185643867  5.07831943872  m  1  1  1  v  0.000168571893365  0.00016356498696  -0.000137992850027
0.043918620395  3.50516189103  5.05993255258  m  1  1  1  v  -0.000133170521719  0.00021048380285  -0.000153820758343
3.07196418769  1.65945643049  7.5748479177  m  1  1  1  v  -0.000246316569054  4.43162837128e-05  7.26992492427e-05
6.17574961157  1.65624602081  7.56755341598  m  1  1  1  v  0.000210592066709  -6.56980583966e-05  5.72948545893e-05
4.64575947715  4.3189666971  7.59999463966  m  1  1  1  v  -9.74362735971e-05  6.02369364982e-07  0.000213399179179
1.59734610601  6.27681540837  0.266018658185  m  1  1  1  v  -5.29420635531e-05  -7.12409506389e-05  -6.03511315003e-05
-1.48636929767  6.31568543242  0.276917558597  m  1  1  1  v  -5.14294017238e-05  4.92798990041e-06  1.89701317313e-06
0.039936230842  3.633568314  0.220421781772  m  1  1  1  v  0.000137695657708  -6.85820384401e-05  -0.000224950898054

C #label
0 #magnetism
36 #number of atoms
-0.0112631850366  1.73309174579  4.42686289142  m  1  1  1  v  0.00019280470433  4.97711364102e-05  2.84599954558e-05
3.12420525241  7.01030330513  4.45360864306  m  1  1  1  v  0.000253911263502  9.47627176809e-05  -0.00042104087907
-3.00392926524  7.10794402282  4.48361889827  m  1  1  1  v  -0.000309133307049  0.000312286430581  0.000312070490805
4.70233560765  6.07643437532  6.96781424067  m  1  1  1  v  -4.73372321712e-06  -0.000336684159379  0.000166414935768
1.53669258379  0.797223738321  6.93180128411  m  1  1  1  v  -0.000248600383965  -0.000316708173541  -0.000249267715072
7.69416053151  0.738043904037  6.91596751376  m  1  1  1  v  -0.000106095096053  -0.000466914607075  0.000175847384977
-0.0182261617212  1.67137803516  9.46614518207  m  1  1  1  v  -1.68845775842e-05  -0.000133390136194  0.000122244986063
3.13048611293  6.96695779012  9.48384603831  m  1  1  1  v  -0.000164363664815  0.000375616814915  7.08868251914e-06
-2.99029874133  7.04348605983  9.51968033101  m  1  1  1  v  0.00028553765303  0.000254220633024  2.64189640875e-05
4.67697486569  6.12181277793  2.00020405673  m  1  1  1  v  -7.36056609899e-05  7.95108539525e-06  0.000545328486495
1.53978977917  0.861986338505  1.93813780731  m  1  1  1  v  0.000149215742686  9.80894636136e-05  0.000147567756171
7.68864385021  0.812184589288  1.96255459519  m  1  1  1  v  0.000204328221319  -0.000154898683694  0.000150193359987
-1.52137066132  4.37544716325  4.4410867044  m  1  1  1  v  -0.000266622587249  -0.000398741634282  -0.000124478629498
1.56790830319  4.39529055252  4.42925598515  m  1  1  1  v  -0.000431697151811  9.23427858022e-05  -1.95883148492e-05
0.0746816178166  7.06486697034  4.49218441546  m  1  1  1  v  0.000215758564461  -8.78659663075e-05  -0.000345582998434
6.18253048524  3.45250311798  6.96935822311  m  1  1  1  v  -5.31565252062e-05  0.000247402305163  -0.00027320428248
3.08663784312  3.4307542372  6.94263403613  m  1  1  1  v  8.13679858527e-05  -0.000255473901664  0.000140143345115
4.62950876653  0.781953072377  6.90898995214  m  1  1  1  v  0.000181903451822  1.28096809048e-05  -5.7662349094e-06
-1.520183533  4.33798875796  9.48708182609  m  1  1  1  v  -0.000300741841644  -0.000135198510663  -0.000339169195745
1.58698213485  4.33678071277  9.4548822666  m  1  1  1  v  0.000250438266145  0.000267693305523  0.000144547503009
0.0730431870568  7.01100292482  9.51024118351  m  1  1  1  v  0.000179930727132  -3.64714653379e-05  0.000275441275635
6.17938943424  3.47760369522  1.95504926856  m  1  1  1  v  0.000205573001816  0.000109660829097  -0.000186431640887
3.12057071359  3.49070053341  1.95146326859  m  1  1  1  v  0.000217493881826  -0.00014274417647  -8.23752067349e-05
4.62705162944  0.793144372513  1.93339974249  m  1  1  1  v  5.17247474674e-05  -0.00012648872721  1.14355619732e-05
3.08373882384  1.7282267785  4.41620201441  m  1  1  1  v  2.87614366477e-05  7.22093309723e-05  -0.000253692986941
6.17306186683  1.6653708208  4.40613138589  m  1  1  1  v  0.000194484479617  3.6793882356e-05  2.12227921729e-05
4.66870392267  4.35858757733  4.43706177646  m  1  1  1  v  -6.11571677511e-05  7.95001470839e-05  -0.000256488445379
1.62533063286  6.11129853542  7.00905853146  m  1  1  1  v  5.01637570016e-05  -0.000189006497515  0.00024583225203
-1.47845231151  6.1543809957  6.98577405534  m  1  1  1  v  3.69648573714e-05  1.39480983991e-05  0.000152690656564
0.0489084847609  3.4760542722  6.95705662264  m  1  1  1  v  0.000201990897085  -0.000251588755893  -5.73069204895e-05
3.06885383158  1.65154477881  9.4467821007  m  1  1  1  v  -0.000121517511988  -9.35022557898e-05  -0.000145217419924
6.16520911691  1.60876878906  9.43834022112  m  1  1  1  v  0.0001533950852  -0.000391546815763  -4.10479101356e-05
4.65971558966  4.30653556827  9.4873959053  m  1  1  1  v  -0.000175058897536  -0.000172049878168  0.000288936916674
1.59933501961  6.15279262378  1.98499963289  m  1  1  1  v  0.000114549076455  -5.00798592669e-05  0.000325024762675
-1.46420093679  6.1673417766  2.02568290758  m  1  1  1  v  -3.25944015988e-05  -3.08877749266e-05  0.000388942283946
0.0560344381532  3.53643828478  1.94075057357  m  1  1  1  v  -0.000278756265562  0.000168913713585  -1.2222782202e-05
