ATOMIC_SPECIES
Si 28.085 Si_ONCV_PBE-1.0.upf upf201
C 12.011 C_ONCV_PBE-1.0.upf upf201

NUMERICAL_ORBITAL
Si_gga_9au_100Ry_3s3p2d.orb
C_gga_9au_100Ry_3s3p2d.orb

LATTICE_CONSTANT
1.88972612546

LATTICE_VECTORS
9.27633565361 0 0 #latvec1
-4.48040523744 8.16167576415 0 #latvec2
0.00474731433942 -0.18947438686 9.84523937228 #latvec3

ATOMIC_POSITIONS
Cartesian

Si #label
0 #magnetism
36 #number of atoms
0.030139704379  1.75994636585  2.53829738729  m  1  1  1  v  2.08222112447e-05  -5.34848695057e-06  1.34555746122e-05
3.14511597596  7.04697159752  2.59338090366  m  1  1  1  v  8.80550339023e-06  -1.47003972316e-05  2.75078094137e-05
-2.99237098772  7.10090196834  2.58340586163  m  1  1  1  v  -5.13704579227e-05  1.41017324051e-05  -1.22500325592e-05
4.65784773588  6.11497547856  5.07979529055  m  1  1  1  v  5.06210832341e-05  -5.44693153308e-05  3.69179263889e-06
1.54273178955  0.815560220596  5.05174653349  m  1  1  1  v  1.45510166814e-05  3.88272604189e-05  -2.83786180457e-05
7.68775196662  0.765338126786  5.04491875853  m  1  1  1  v  3.19016495298e-07  -5.67690194237e-06  5.60940028368e-06
0.0183241978286  1.70132263842  7.59030698383  m  1  1  1  v  -3.59402677604e-05  -4.7374172969e-06  -8.39284815119e-07
3.13367867085  6.98788989786  7.6186276854  m  1  1  1  v  2.41853717426e-05  2.49994627707e-05  -4.10585253683e-05
-2.99342649167  7.06739054228  7.63490786619  m  1  1  1  v  4.91735204922e-05  1.34704857126e-05  -2.21277793633e-06
4.66031524123  6.25214933773  0.288871788109  m  1  1  1  v  4.51656259477e-06  -1.56630651859e-05  2.29569199702e-05
1.55483440238  0.973323648849  0.236798213956  m  1  1  1  v  -3.60673516164e-06  4.31457733531e-05  -7.86229155721e-06
7.68296687714  0.903164093277  0.225176375611  m  1  1  1  v  1.52729539727e-05  -3.04159189209e-05  -2.5113218204e-05
-1.50069326519  4.40460605716  2.56666160986  m  1  1  1  v  -6.1575338024e-06  -1.85475888336e-05  -2.91298305641e-05
1.57192563551  4.40750118834  2.56452348745  m  1  1  1  v  6.82219232602e-06  2.35216016119e-05  -9.81867343464e-06
0.0690968393241  7.07076442199  2.58691228944  m  1  1  1  v  -9.31283028812e-06  -1.4861185074e-05  -4.55236308994e-05
6.17840589351  3.44242147973  5.08150667746  m  1  1  1  v  -1.31307426207e-07  -1.28883568417e-05  3.20378699329e-05
3.09073015073  3.46786140506  5.0746855372  m  1  1  1  v  -3.57207413218e-06  5.65397935133e-05  -1.06519198904e-06
4.6047250131  0.793514704108  5.0329602004  m  1  1  1  v  -2.18821980159e-05  7.66364199516e-07  1.65814596405e-05
-1.49880191069  4.36995376535  7.56274812121  m  1  1  1  v  6.00738108406e-07  7.63174208248e-06  -2.47717324543e-05
1.58611840549  4.3469594897  7.59504470287  m  1  1  1  v  1.7587874155e-05  3.70421200359e-05  -3.70673936403e-05
0.0791105378463  7.01528261588  7.61124695276  m  1  1  1  v  5.3533948387e-06  -1.94670914353e-05  -6.11241697166e-06
6.16582086205  3.58653275319  0.269311939594  m  1  1  1  v  1.8244697657e-05  2.82925424105e-05  -1.48488975351e-05
3.10284544981  3.61727885186  0.262956048193  m  1  1  1  v  -1.37193485462e-05  1.24263692237e-05  -2.94349873755e-05
4.61135026919  0.925638981752  0.228013330176  m  1  1  1  v  2.66233922009e-05  1.69441610939e-05  5.69915681345e-07
3.09540295672  1.71165976359  2.5217464987  m  1  1  1  v  2.58302585565e-06  2.65374634387e-05  -4.88169442525e-06
6.14858704196  1.67768679577  2.52634038197  m  1  1  1  v  1.23301498859e-05  -6.6101623716e-06  2.91507443929e-05
4.64337348203  4.35848384856  2.5690762746  m  1  1  1  v  -7.94985273518e-07  1.85029206306e-05  -4.40263366491e-06
1.5961805373  6.14838082847  5.09208627906  m  1  1  1  v  -4.57363578911e-05  5.29439844793e-05  -2.59179792814e-05
-1.4602117518  6.18826394226  5.07419013456  m  1  1  1  v  1.28455016267e-05  -3.38609726261e-05  2.37431330036e-05
0.0355791287039  3.5031340407  5.06212708539  m  1  1  1  v  -2.49032512124e-05  -3.9395597677e-06  -4.0296572377e-05
3.08471195919  1.66591653331  7.57229955179  m  1  1  1  v  -2.88074898566e-05  -1.177375606e-05  3.40952242417e-05
6.17383843969  1.64573789796  7.57112708244  m  1  1  1  v  -6.10086977136e-05  2.73674370865e-06  3.91217072301e-05
4.64225558442  4.31285705609  7.59883198184  m  1  1  1  v  3.16797747136e-05  -2.13812044224e-05  3.20890412082e-05
1.59078953763  6.28269492075  0.286262214621  m  1  1  1  v  -2.54901981885e-05  -1.6014034434e-05  -2.73751988562e-05
-1.48008529981  6.31225518605  0.297454456285  m  1  1  1  v  5.05569824879e-06  -3.46447231809e-05  -1.99980436516e-05
0.0324004310485  3.63303625488  0.237844885591  m  1  1  1  v  4.44762661357e-06  -5.48247991553e-06  4.95554440045e-06

C #label
0 #magnetism
36 #number of atoms
0.0102820462424  1.72571441336  4.41831052916  m  1  1  1  v  -3.45923957259e-05  2.31947392564e-05  -2.78639326482e-05
3.13569556531  7.02173308051  4.48537429103  m  1  1  1  v  -6.29539355816e-06  -2.27555423688e-05  -2.3092418558e-05
-2.98860487984  7.086606178  4.48209679563  m  1  1  1  v  2.49761263203e-05  2.88595732134e-05  9.06693765834e-07
4.6721337094  6.0772097498  6.98472792719  m  1  1  1  v  1.28495588891e-06  3.02695879223e-05  4.78883536891e-05
1.53866973096  0.797721568388  6.93920763541  m  1  1  1  v  -6.00497084141e-06  -2.85653333107e-05  -8.24729123228e-06
7.68193973826  0.744383305126  6.93595451653  m  1  1  1  v  4.3819650622e-05  2.05454783474e-05  5.7519950912e-05
0.0141085199051  1.69708449692  9.46219459696  m  1  1  1  v  6.4663973941e-06  -4.42216575238e-05  -4.57011079404e-05
3.12814391418  6.95579658065  9.50324803212  m  1  1  1  v  -2.15743502958e-05  -7.66476759401e-05  2.7788686913e-05
-2.99153109725  7.02924673174  9.51307168003  m  1  1  1  v  7.94339240274e-05  -4.84710844697e-05  9.5541151639e-06
4.6567818406  6.13307618992  1.97057193249  m  1  1  1  v  -3.2330166362e-05  1.09733071286e-05  6.07247172409e-05
1.54242448641  0.862529102795  1.89127747927  m  1  1  1  v  4.08331703428e-07  4.2447731878e-05  5.07380830409e-05
7.68984416847  0.803934526031  1.9174582322  m  1  1  1  v  1.99204204328e-05  6.17470375692e-06  3.61194500694e-07
-1.49115676676  4.39396848285  4.44725002218  m  1  1  1  v  7.41341011426e-05  2.11513898427e-06  -1.56532505777e-05
1.5846098449  4.3610271685  4.46168015896  m  1  1  1  v  5.82099065719e-06  3.25707082865e-05  -5.10475635618e-05
0.0763977722302  7.04531109652  4.48363184294  m  1  1  1  v  1.64812962036e-05  -4.67928482166e-05  4.29393618875e-05
6.17594402157  3.42071198775  6.96497250916  m  1  1  1  v  -4.86064611245e-05  -2.46948308442e-05  -4.62065171308e-05
3.09747230332  3.45253026512  6.95009648327  m  1  1  1  v  -3.26664090176e-05  1.13089011225e-05  -4.85603418362e-05
4.63703324532  0.787830985217  6.92884130115  m  1  1  1  v  1.78975427945e-05  3.88426838035e-06  1.68082798518e-05
-1.4883587521  4.35683355373  9.48930829797  m  1  1  1  v  -7.5791436763e-05  1.77636280098e-05  1.11371367816e-05
1.58737764464  4.3191099226  9.46994269362  m  1  1  1  v  -3.07957605584e-05  -2.59671471023e-05  9.34355141043e-05
0.071171667912  7.02030565719  9.49854930204  m  1  1  1  v  1.84011013175e-05  5.91290742065e-07  -1.9088776954e-05
6.16666794293  3.46455607797  1.9255998912  m  1  1  1  v  2.86626021822e-05  -6.24158857762e-05  3.97885790174e-05
3.10976780254  3.49457861793  1.93745038149  m  1  1  1  v  1.67668790751e-05  -1.5952689281e-05  7.71966184706e-05
4.61253346098  0.805030089122  1.88080375535  m  1  1  1  v  -1.52391268922e-05  -3.50497059733e-06  -7.72180734408e-05
3.07519930804  1.71580799992  4.42021185861  m  1  1  1  v  1.49619373817e-05  -3.02222885472e-05  2.47818291774e-06
6.1573427197  1.67659046759  4.41869765965  m  1  1  1  v  -2.4602340928e-05  -2.54120505301e-05  6.37272349724e-05
4.65178947957  4.33841558995  4.45320452782  m  1  1  1  v  4.75924329625e-05  4.70840044982e-05  -2.23257699486e-05
1.61667440737  6.11697666329  6.98382575207  m  1  1  1  v  -4.93671056398e-05  5.65543139957e-05  5.98335135065e-05
-1.4725537603  6.13988540605  6.97770469443  m  1  1  1  v  3.89978628582e-05  -3.1159385664e-05  2.32768776533e-05
0.0415864297611  3.46828740198  6.95958100403  m  1  1  1  v  -3.89061135847e-05  2.41624980458e-05  7.0394117947e-06
3.07865571052  1.63981187518  9.45625336781  m  1  1  1  v  2.3461407892e-05  -4.56840597088e-05  6.14269478324e-07
6.1579664406  1.63114613434  9.45360893096  m  1  1  1  v  -4.13939429452e-05  -1.0535026747e-05  1.99978088189e-05
4.65806809981  4.30917364345  9.49339191184  m  1  1  1  v  3.34761223275e-06  -2.0306499026e-05  -3.42453865083e-05
1.59283687332  6.1609894079  1.9507946682  m  1  1  1  v  -1.90023527478e-05  6.25243107546e-05  6.97428300338e-05
-1.46535070767  6.19630642853  1.975040656  m  1  1  1  v  3.04790471808e-05  -4.47570255169e-05  3.52521851059e-05
0.0586582748083  3.52848154612  1.93202772759  m  1  1  1  v  -3.61640007638e-05  -1.8604412712e-05  -4.22262413575e-05
