ATOMIC_SPECIES
Si 28.085 Si_ONCV_PBE-1.0.upf upf201
C 12.011 C_ONCV_PBE-1.0.upf upf201

NUMERICAL_ORBITAL
Si_gga_9au_100Ry_3s3p2d.orb
C_gga_9au_100Ry_3s3p2d.orb

LATTICE_CONSTANT
1.88972612546

LATTICE_VECTORS
9.3935443103 0 0 #latvec1
-4.53183419529 7.94673229587 0 #latvec2
0.23696769227 -0.0645438716626 10.3694121754 #latvec3

ATOMIC_POSITIONS
Cartesian

Si #label
0 #magnetism
36 #number of atoms
0.0459576142097  1.80517814621  2.56840850798  m  1  1  1  v  2.08222112447e-05  -5.34848695057e-06  1.34555746122e-05
3.23895252655  7.18211509699  2.54783950621  m  1  1  1  v  8.80550339023e-06  -1.47003972316e-05  2.75078094137e-05
-3.02310060578  7.25114420099  2.61610383431  m  1  1  1  v  -5.13704579227e-05  1.41017324051e-05  -1.22500325592e-05
4.81615611172  6.26206602232  5.10211628737  m  1  1  1  v  5.06210832341e-05  -5.44693153308e-05  3.69179263889e-06
1.63693836019  0.871056438612  5.1201610313  m  1  1  1  v  1.45510166814e-05  3.88272604189e-05  -2.83786180457e-05
7.90588119467  0.810694670516  5.0631553224  m  1  1  1  v  3.19016495298e-07  -5.67690194237e-06  5.60940028368e-06
0.104907776912  1.79686304674  7.71045584506  m  1  1  1  v  -3.59402677604e-05  -4.7374172969e-06  -8.39284815119e-07
3.29595912267  7.16822383955  7.70039910331  m  1  1  1  v  2.41853717426e-05  2.49994627707e-05  -4.10585253683e-05
-2.9567806084  7.24203851644  7.76425151412  m  1  1  1  v  4.91735204922e-05  1.34704857126e-05  -2.21277793633e-06
4.87630645228  6.24425703126  10.2513074896  m  1  1  1  v  4.51656259477e-06  -1.56630651859e-05  2.29569199702e-05
1.68841569886  0.851970247459  10.2622740221  m  1  1  1  v  -3.60673516164e-06  4.31457733531e-05  -7.86229155721e-06
7.9545753174  0.785104038199  10.1843991663  m  1  1  1  v  1.52729539727e-05  -3.04159189209e-05  -2.5113218204e-05
-1.47995087276  4.53157023997  2.60377485014  m  1  1  1  v  -6.1575338024e-06  -1.85475888336e-05  -2.91298305641e-05
1.65368396045  4.5035887068  2.5593963123  m  1  1  1  v  6.82219232602e-06  2.35216016119e-05  -9.81867343464e-06
0.102754136241  7.22016554397  2.58635963343  m  1  1  1  v  -9.31283028812e-06  -1.4861185074e-05  -4.55236308994e-05
6.35561814607  3.53441547957  5.07204873801  m  1  1  1  v  -1.31307426207e-07  -1.28883568417e-05  3.20378699329e-05
3.21028507983  3.56292179375  5.12261650799  m  1  1  1  v  -3.57207413218e-06  5.65397935133e-05  -1.06519198904e-06
4.7531388023  0.834657718271  5.08312669134  m  1  1  1  v  -2.18821980159e-05  7.66364199516e-07  1.65814596405e-05
-1.4358017818  4.50133496992  7.72277201346  m  1  1  1  v  6.00738108406e-07  7.63174208248e-06  -2.47717324543e-05
1.68819037819  4.48353203276  7.70304044182  m  1  1  1  v  1.7587874155e-05  3.70421200359e-05  -3.70673936403e-05
0.167035439113  7.20500653  7.72419446302  m  1  1  1  v  5.3533948387e-06  -1.94670914353e-05  -6.11241697166e-06
6.41768759753  3.52420685164  10.2087110254  m  1  1  1  v  1.8244697657e-05  2.82925424105e-05  -1.48488975351e-05
3.28507914431  3.54506003801  10.255831104  m  1  1  1  v  -1.37193485462e-05  1.24263692237e-05  -2.94349873755e-05
4.82026447982  0.825035582311  10.225607161  m  1  1  1  v  2.66233922009e-05  1.69441610939e-05  5.69915681345e-07
3.16352218895  1.76668750515  2.53357903339  m  1  1  1  v  2.58302585565e-06  2.65374634387e-05  -4.88169442525e-06
6.31021045978  1.73224727802  2.50634179471  m  1  1  1  v  1.23301498859e-05  -6.6101623716e-06  2.91507443929e-05
4.7782366209  4.46750947285  2.51893199695  m  1  1  1  v  -7.94985273518e-07  1.85029206306e-05  -4.40263366491e-06
1.68849801733  6.28484340287  5.13032737317  m  1  1  1  v  -4.57363578911e-05  5.29439844793e-05  -2.59179792814e-05
-1.42858596859  6.32357047615  5.18097985821  m  1  1  1  v  1.28455016267e-05  -3.38609726261e-05  2.37431330036e-05
0.0960265491036  3.60396965867  5.13608526546  m  1  1  1  v  -2.49032512124e-05  -3.9395597677e-06  -4.0296572377e-05
3.24329974342  1.75361966299  7.6779724142  m  1  1  1  v  -2.88074898566e-05  -1.177375606e-05  3.40952242417e-05
6.37864592418  1.73265828441  7.65247774092  m  1  1  1  v  -6.10086977136e-05  2.73674370865e-06  3.91217072301e-05
4.83718220274  4.44758964201  7.67856360483  m  1  1  1  v  3.16797747136e-05  -2.13812044224e-05  3.20890412082e-05
1.74600536409  6.25474314507  10.2912040521  m  1  1  1  v  -2.54901981885e-05  -1.6014034434e-05  -2.73751988562e-05
-1.38675315929  6.3021481698  10.3052810379  m  1  1  1  v  5.05569824879e-06  -3.46447231809e-05  -1.99980436516e-05
0.138185746829  3.5648558657  10.283756118  m  1  1  1  v  4.44762661357e-06  -5.48247991553e-06  4.95554440045e-06

C #label
0 #magnetism
36 #number of atoms
0.069206133672  1.7974132817  4.49881550056  m  1  1  1  v  -3.45923957259e-05  2.31947392564e-05  -2.78639326482e-05
3.2595990615  7.17973744813  4.48534478878  m  1  1  1  v  -6.29539355816e-06  -2.27555423688e-05  -2.3092418558e-05
-3.00510833657  7.24057672179  4.55969885186  m  1  1  1  v  2.49761263203e-05  2.88595732134e-05  9.06693765834e-07
4.84544262359  6.24987728579  7.03560558414  m  1  1  1  v  1.28495588891e-06  3.02695879223e-05  4.78883536891e-05
1.65134359836  0.861352900679  7.05503482868  m  1  1  1  v  -6.00497084141e-06  -2.85653333107e-05  -8.24729123228e-06
7.91493039196  0.80027260258  6.97756380136  m  1  1  1  v  4.3819650622e-05  2.05454783474e-05  5.7519950912e-05
0.117360073679  1.78657661194  9.62828221065  m  1  1  1  v  6.4663973941e-06  -4.42216575238e-05  -4.57011079404e-05
3.3262622015  7.17438304045  9.6130573376  m  1  1  1  v  -2.15743502958e-05  -7.66476759401e-05  2.7788686913e-05
-2.95058807287  7.23055572193  9.7030859499  m  1  1  1  v  7.94339240274e-05  -4.84710844697e-05  9.5541151639e-06
4.78661344005  6.27788710632  1.89466675753  m  1  1  1  v  -3.2330166362e-05  1.09733071286e-05  6.07247172409e-05
1.59872784536  0.882105573961  1.92275864489  m  1  1  1  v  4.08331703428e-07  4.2447731878e-05  5.07380830409e-05
7.86308525064  0.82299874879  1.84024212847  m  1  1  1  v  1.99204204328e-05  6.17470375692e-06  3.61194500694e-07
-1.4681800485  4.52347065992  4.53170930099  m  1  1  1  v  7.41341011426e-05  2.11513898427e-06  -1.56532505777e-05
1.66641911682  4.47412463054  4.48994742235  m  1  1  1  v  5.82099065719e-06  3.25707082865e-05  -5.10475635618e-05
0.136512201135  7.21022915272  4.51966654136  m  1  1  1  v  1.64812962036e-05  -4.67928482166e-05  4.29393618875e-05
6.3789447248  3.52900829892  7.00892579461  m  1  1  1  v  -4.86064611245e-05  -2.46948308442e-05  -4.62065171308e-05
3.24661248169  3.55424772238  7.03734095041  m  1  1  1  v  -3.26664090176e-05  1.13089011225e-05  -4.85603418362e-05
4.77612866349  0.844030733141  7.02460392753  m  1  1  1  v  1.78975427945e-05  3.88426838035e-06  1.68082798518e-05
-1.40999430417  4.50254027633  9.65440054673  m  1  1  1  v  -7.5791436763e-05  1.77636280098e-05  1.11371367816e-05
1.71893539349  4.47929696179  9.63001695583  m  1  1  1  v  -3.07957605584e-05  -2.59671471023e-05  9.34355141043e-05
0.182504217439  7.18941906737  9.66312045029  m  1  1  1  v  1.84011013175e-05  5.91290742065e-07  -1.9088776954e-05
6.32375507994  3.54496692793  1.86664710556  m  1  1  1  v  2.86626021822e-05  -6.24158857762e-05  3.97885790174e-05
3.18914842646  3.58363171149  1.90359181246  m  1  1  1  v  1.67668790751e-05  -1.5952689281e-05  7.71966184706e-05
4.7284373827  0.848556558871  1.89376050308  m  1  1  1  v  -1.52391268922e-05  -3.50497059733e-06  -7.72180734408e-05
3.20514630205  1.75576630692  4.47780811019  m  1  1  1  v  1.49619373817e-05  -3.02222885472e-05  2.47818291774e-06
6.32511296159  1.72120338959  4.43270055049  m  1  1  1  v  -2.4602340928e-05  -2.54120505301e-05  6.37272349724e-05
4.79383457036  4.45534215872  4.46051599057  m  1  1  1  v  4.75924329625e-05  4.70840044982e-05  -2.23257699486e-05
1.70125946077  6.2838424613  7.0476008951  m  1  1  1  v  -4.93671056398e-05  5.65543139957e-05  5.98335135065e-05
-1.42717874971  6.32463929843  7.10664444265  m  1  1  1  v  3.89978628582e-05  -3.1159385664e-05  2.32768776533e-05
0.116774245752  3.58504037069  7.08176395173  m  1  1  1  v  -3.89061135847e-05  2.41624980458e-05  7.0394117947e-06
3.25125315411  1.74156125253  9.60869918403  m  1  1  1  v  2.3461407892e-05  -4.56840597088e-05  6.14269478324e-07
6.39552790645  1.70576214558  9.56827570268  m  1  1  1  v  -4.13939429452e-05  -1.0535026747e-05  1.99978088189e-05
4.84795750735  4.4390071471  9.59931393347  m  1  1  1  v  3.34761223275e-06  -2.0306499026e-05  -3.42453865083e-05
1.66697841227  6.31578706807  1.94473692547  m  1  1  1  v  -1.90023527478e-05  6.25243107546e-05  6.97428300338e-05
-1.46752817872  6.33853919161  1.95938568165  m  1  1  1  v  3.04790471808e-05  -4.47570255169e-05  3.52521851059e-05
0.068298565145  3.61720707426  1.93560406893  m  1  1  1  v  -3.61640007638e-05  -1.8604412712e-05  -4.22262413575e-05
