ATOMIC_SPECIES
Si 28.085 Si_ONCV_PBE-1.0.upf upf201
C 12.011 C_ONCV_PBE-1.0.upf upf201

NUMERICAL_ORBITAL
Si_gga_9au_100Ry_3s3p2d.orb
C_gga_9au_100Ry_3s3p2d.orb

LATTICE_CONSTANT
1.88972612546

LATTICE_VECTORS
9.3935443103 0 0 #latvec1
-4.53183419529 7.94673229587 0 #latvec2
0.23696769227 -0.0645438716626 10.3694121754 #latvec3

ATOMIC_POSITIONS
Cartesian

Si #label
0 #magnetism
36 #number of atoms
0.0467748269993  1.82016305025  2.56608458658  m  1  1  1  v  8.6654171636e-05  0.000273540479988  -0.000179261431122
3.25087101871  7.16984523364  2.54593292992  m  1  1  1  v  0.000266682389203  9.67880852959e-05  -0.000255997392201
-3.03161814804  7.23162398478  2.61031397708  m  1  1  1  v  0.000154114521104  -5.28984336847e-05  0.000122790913463
4.80393050851  6.25379651221  5.10398915477  m  1  1  1  v  -7.41559448593e-05  -2.28231999362e-06  -1.03766327441e-05
1.62436267612  0.891308562708  5.12527325166  m  1  1  1  v  -6.28787434433e-05  3.68723623329e-05  0.000118019434849
7.89526928141  0.842869868444  5.07522861299  m  1  1  1  v  -0.000107688605424  7.89454116578e-05  4.19127155464e-05
0.0971433176351  1.79282854317  7.71253514168  m  1  1  1  v  0.000259665072332  -2.7780698172e-05  7.0154359438e-05
3.28588565888  7.16639454639  7.69364568908  m  1  1  1  v  -5.53430313782e-05  -0.00033154534344  -4.30106589589e-05
-2.95910187321  7.23957347311  7.7752838558  m  1  1  1  v  -0.000113632820247  9.24340203491e-05  0.000233452597532
4.85993375542  6.24727660908  10.2645720691  m  1  1  1  v  -0.000191579494243  -0.000165763392901  0.000123446927879
1.6725758627  0.863640750556  10.2691093105  m  1  1  1  v  -6.84689626617e-05  0.000329202340388  8.42999108352e-05
7.96608977472  0.804408023599  10.1871108327  m  1  1  1  v  8.29357548657e-05  0.000262675990657  -0.000101904592751
-1.49510685575  4.52841251356  2.61133612867  m  1  1  1  v  0.000158899926278  1.9048593933e-05  0.000156784544716
1.65670937654  4.51161020462  2.56230363874  m  1  1  1  v  -4.18815352179e-05  -6.428346376e-05  0.000157857231585
0.0949096682374  7.20738730121  2.56577454013  m  1  1  1  v  -5.63849008494e-05  0.00016165601214  0.000167949358279
6.35861990566  3.52852078665  5.07910954425  m  1  1  1  v  4.84684821843e-05  -0.00021848146772  -0.000124179674886
3.2095435449  3.55781587255  5.11471429909  m  1  1  1  v  -0.000233053168778  5.22806898471e-05  -0.000157681946342
4.74523414872  0.850656464678  5.09785953392  m  1  1  1  v  -0.00015895692741  3.34710456243e-05  -0.000100949495825
-1.44885841761  4.50883605254  7.73161257765  m  1  1  1  v  -0.000191087064365  0.000187261379671  1.40167641584e-05
1.69818388175  4.491832654  7.70410334707  m  1  1  1  v  6.0419554772e-05  -2.87006712125e-05  0.000191526297038
0.168118054759  7.21531851764  7.72815210602  m  1  1  1  v  0.000161174479772  0.000181821047593  0.000140351187808
6.41259591275  3.51807813312  10.2099692947  m  1  1  1  v  -0.000108243129938  -7.68297775823e-06  3.87964801275e-05
3.29280981973  3.54078039094  10.2691128379  m  1  1  1  v  6.65885496547e-05  -0.000170331057331  4.77467064435e-05
4.83096417045  0.844638213471  10.2291655778  m  1  1  1  v  -8.48187630168e-05  0.000158452897286  2.03392955105e-05
3.16368144414  1.78376109116  2.54171292916  m  1  1  1  v  9.97049324936e-05  -0.000265983352698  0.000201562935276
6.29589159978  1.74293655583  2.51218610238  m  1  1  1  v  0.000254362796846  0.000117469492636  -3.20360534762e-05
4.76958976704  4.47361807789  2.51676233136  m  1  1  1  v  0.000134273468426  0.000184068737252  2.14006224813e-05
1.70057773749  6.28853365673  5.12482041605  m  1  1  1  v  -3.80243895828e-05  2.16162749785e-05  -3.2301788869e-06
-1.42943126873  6.3192590876  5.18346602135  m  1  1  1  v  0.00017184237688  0.000153035012785  -0.000144584697799
0.104664116843  3.6066745887  5.13297392921  m  1  1  1  v  -0.000131310886921  0.000214012393434  -0.000157255403742
3.22905914151  1.75072086868  7.68095697533  m  1  1  1  v  -0.000253384207791  6.27022893648e-05  7.67799887185e-05
6.37996088713  1.74580268227  7.64809976715  m  1  1  1  v  0.000207837122653  -5.17023224398e-05  5.62141375776e-05
4.83932494013  4.45337687875  7.67799767087  m  1  1  1  v  -0.000103243650776  -1.12973460045e-06  0.000208162817673
1.75459589544  6.24691363921  10.2901502014  m  1  1  1  v  -4.42167330137e-05  -8.18199570642e-05  1.65058456226e-05
-1.39189392742  6.30214245589  10.3038084809  m  1  1  1  v  -4.60275753497e-05  -1.16811366435e-05  7.41303019443e-05
0.147963529235  3.56584487328  10.2818808096  m  1  1  1  v  0.000148791917559  -6.52467481304e-05  -0.000156636485535

C #label
0 #magnetism
36 #number of atoms
0.0504170764007  1.81079557994  4.50468754921  m  1  1  1  v  0.000205531394636  7.64279670763e-05  1.20718049063e-05
3.24664546013  7.13220400158  4.44707237099  m  1  1  1  v  0.00024850726912  -3.17326799783e-05  -0.000442444041818
-3.01489939686  7.22570090143  4.54924937535  m  1  1  1  v  -0.000285339337489  0.000162041116672  0.000260368473329
4.87343967706  6.24021916653  7.02487454748  m  1  1  1  v  -1.34112901769e-05  -0.000376207854172  0.00018940182559
1.65002381971  0.894287866793  7.03984549752  m  1  1  1  v  -0.000245508924675  -0.000185221169906  -0.000278388476519
7.92317984407  0.824178884331  6.95493022904  m  1  1  1  v  -0.000122495954669  -0.00034255180698  0.000165873436561
0.0893712202895  1.769371929  9.63629419765  m  1  1  1  v  5.74094624779e-06  -9.46827575112e-05  0.000140170387351
3.32331889108  7.14200153606  9.58988022696  m  1  1  1  v  -0.000185232063451  0.000203045371575  -2.4454271608e-06
-2.94426716705  7.20494436538  9.69775892926  m  1  1  1  v  0.000310070507782  8.7533299748e-05  -2.03598718688e-05
4.80042820411  6.25825331807  1.8930950747  m  1  1  1  v  -0.000103297539312  -3.0322364157e-05  0.000422455783557
1.59251232822  0.914636435208  1.91813283686  m  1  1  1  v  0.000132332354249  0.000231262421124  -4.38077036222e-05
7.85635994787  0.860774574448  1.84937607149  m  1  1  1  v  0.000178481822936  -3.53476717665e-05  2.35263503992e-05
-1.49349438643  4.50505593455  4.52204492922  m  1  1  1  v  -0.000245511543302  -0.000398936221418  -0.000145649434518
1.64997662622  4.5069846486  4.46074194238  m  1  1  1  v  -0.000431270905438  8.63029694214e-05  -1.1154920539e-05
0.132066062238  7.18690452594  4.52129405267  m  1  1  1  v  0.000204520933622  -0.000264678048959  -0.000375164805706
6.382646319  3.55922092715  7.01809308877  m  1  1  1  v  -6.52721434464e-05  0.000243640288487  -0.000253783577883
3.23419660229  3.53485772276  7.03152912593  m  1  1  1  v  7.27126572275e-05  -0.000244697744754  0.000145716268268
4.77394634293  0.869250080686  6.99731062065  m  1  1  1  v  0.000204272968071  0.000144394670374  -4.05061812396e-05
-1.43703264983  4.48571135878  9.65651150787  m  1  1  1  v  -0.00027935162772  -0.000127356148376  -0.000319094932159
1.71877852924  4.49373637282  9.61926765692  m  1  1  1  v  0.000251877357364  0.000252628956762  0.000162687577706
0.184481886595  7.14605573314  9.66899179684  m  1  1  1  v  0.000182106397826  -0.000163146982735  0.000259547905772
6.33112087551  3.55718094949  1.85940796148  m  1  1  1  v  0.000181391136253  0.000105321417851  -0.00032659034237
3.19945198989  3.5777863382  1.88152196618  m  1  1  1  v  0.000215834141991  -0.000150607146645  -0.000237417485535
4.74032612527  0.869372034068  1.89461487929  m  1  1  1  v  4.11688801093e-05  1.10438605787e-05  -0.000176143204198
3.21035407782  1.77697647034  4.47521351212  m  1  1  1  v  1.50828841677e-05  0.000111652525354  -0.000253685336011
6.34208732794  1.71678644504  4.42346416647  m  1  1  1  v  0.00020133288858  6.60174444382e-05  2.9786586077e-05
4.81056417955  4.47545574266  4.4449000355  m  1  1  1  v  -6.04671261177e-05  7.84010933945e-05  -0.000258310312808
1.71477202386  6.27263720596  7.07965037913  m  1  1  1  v  7.26589796693e-05  -0.000213444357454  0.000274782612103
-1.43042359152  6.32973468144  7.11877713687  m  1  1  1  v  4.84711108037e-05  -2.64374451557e-05  0.000166700217884
0.125251388098  3.59270215992  7.07992520141  m  1  1  1  v  0.000207666291967  -0.000250793742909  -5.71396278233e-05
3.23896995887  1.75532067237  9.60592966708  m  1  1  1  v  -0.000130385467218  -8.29404914767e-05  -0.000118584181549
6.40134353646  1.69030264822  9.55999227197  m  1  1  1  v  0.000146558718095  -0.000361066755484  -1.15618963786e-05
4.85167644924  4.43892657291  9.60144293577  m  1  1  1  v  -0.000165767374147  -0.000163994526369  0.000325657268082
1.66891710646  6.2978983724  1.93961878166  m  1  1  1  v  9.3628658043e-05  -9.57423989468e-05  0.000175689120739
-1.46748443452  6.30460122606  1.97895837149  m  1  1  1  v  -3.72073531131e-05  -5.43871393528e-05  0.000285408946895
0.0668753683512  3.62333548234  1.91083221176  m  1  1  1  v  -0.00027347315636  0.000161262818367  -0.000153742075388
