ATOMIC_SPECIES
Si 28.085 Si_ONCV_PBE-1.0.upf
C 12.011 C_ONCV_PBE-1.0.upf

LATTICE_CONSTANT
1.8897261254578281

LATTICE_VECTORS
9.117566484866025 0.0 0.0 
-4.625761992082696 8.140788132534533 0.0 
-0.2547466710298638 -0.09290636115104686 10.210550857413214 

ATOMIC_POSITIONS
Cartesian    # Cartesian(Unit is LATTICE_CONSTANT)
Si
0.0
36
-0.046657014033 1.757594809078 2.519032045026 1 1 1
3.012770687231 7.093481374352 2.589787033491 1 1 1
-3.129423490552 7.061072409687 2.501639399526 1 1 1
4.509692883236 6.200280370267 5.122613517748 1 1 1
1.467196182972 0.868427163380 5.053855633717 1 1 1
7.604454165641 0.896086061221 5.137694356200 1 1 1
-0.096142375012 1.739756181360 7.563103014058 1 1 1
2.940307132713 7.072781489489 7.630328007988 1 1 1
-3.197898494087 7.041276588226 7.546041401418 1 1 1
4.443752644072 6.178922721889 10.160723349354 1 1 1
1.404554801915 0.846496088981 10.092614278864 1 1 1
7.539824027481 0.873185644279 10.168008883945 1 1 1
-1.584843729495 4.407518323122 2.519038830147 1 1 1
1.479982004048 4.432834047455 2.556995589660 1 1 1
-0.050439642732 7.079507747886 2.552171361947 1 1 1
6.060041682516 3.549170389124 5.134071260105 1 1 1
2.980113917733 3.539222349840 5.092522403281 1 1 1
4.532705976374 0.880988262292 5.088665705676 1 1 1
-1.652453964673 4.385772967252 7.544910924020 1 1 1
1.422277402504 4.401572609934 7.588631922201 1 1 1
-0.120562333290 7.049508939977 7.585716916088 1 1 1
5.995470977962 3.522853704680 10.163370444548 1 1 1
2.927028072336 3.511444601191 10.122876482513 1 1 1
4.470729641009 0.859728385205 10.131860120253 1 1 1
3.024627108379 1.772882537442 2.559031918664 1 1 1
6.089073222126 1.788500911091 2.593081524208 1 1 1
4.550301833786 4.435522328026 2.594434506994 1 1 1
1.448506055458 6.187388545596 5.079331331581 1 1 1
-1.619369898513 6.171268651040 5.032406100576 1 1 1
-0.081932556309 3.527047540165 5.050843768718 1 1 1
2.964683065358 1.747115242110 7.593232543454 1 1 1
6.043322378373 1.763945207384 7.641103572180 1 1 1
4.488121865581 4.413693773724 7.634460904434 1 1 1
1.380772354789 6.162972187517 10.114724876580 1 1 1
-1.683008268444 6.152444624279 10.078956537686 1 1 1
-0.146938066468 3.500285906269 10.078502803187 1 1 1
C
0.0
36
-0.059742627043 1.753971585554 4.413652450766 1 1 1
2.984901816469 7.088906642178 4.483073562420 1 1 1
-3.145473789767 7.064987741182 4.396562766091 1 1 1
4.493873255907 6.187441151006 7.007728629960 1 1 1
1.441276985704 0.859937048538 6.948616662686 1 1 1
7.578068737357 0.892598456825 7.035743847114 1 1 1
-0.129252364985 1.741034278436 9.455696841855 1 1 1
2.912909131038 7.049247383246 9.512744911806 1 1 1
-3.212379968426 7.029801199171 9.438026021036 1 1 1
4.546220342327 6.209924255723 1.985505334014 1 1 1
1.501639409707 0.886603956902 1.910210666769 1 1 1
7.651342023922 0.913065438645 1.999166957331 1 1 1
-1.607776206870 4.397381798924 4.407493627188 1 1 1
1.466550500427 4.410374337597 4.445011991595 1 1 1
-0.081500828668 7.065853991991 4.437285686444 1 1 1
6.036349971529 3.538303287802 7.020583271927 1 1 1
2.959531873401 3.527911681096 6.980293513576 1 1 1
4.518939806510 0.868762327008 6.988541977333 1 1 1
-1.673828262200 4.381233568036 9.443893699627 1 1 1
1.401000897697 4.382312954900 9.477695812027 1 1 1
-0.154290559945 7.052476205597 9.476880499783 1 1 1
6.095497488266 3.555105693286 1.987500445331 1 1 1
3.035861695472 3.546767742316 1.956632666651 1 1 1
4.567009722752 0.892856536358 1.950016366136 1 1 1
3.008742394760 1.763831951655 4.451371898060 1 1 1
6.071188017276 1.774409349053 4.493973225051 1 1 1
4.540465825548 4.429100664355 4.494893533535 1 1 1
1.426875028404 6.176844091517 6.974797617143 1 1 1
-1.653957709929 6.153287493615 6.932073585350 1 1 1
-0.100785446141 3.507937810856 6.937343065870 1 1 1
2.934425559119 1.737422083702 9.490130761207 1 1 1
6.001446041428 1.756997052809 9.525586860739 1 1 1
4.467440529681 4.407930201877 9.521659478632 1 1 1
1.480606661382 6.193872079966 1.951488592082 1 1 1
-1.579290578038 6.189658787676 1.905036174025 1 1 1
-0.036398526016 3.533349623125 1.916040371883 1 1 1

NUMERICAL_ORBITAL
Si_gga_9au_100Ry_3s3p2d.orb
C_gga_9au_100Ry_3s3p2d.orb
