ATOMIC_SPECIES
Si 28.085 Si_ONCV_PBE-1.0.upf upf201
C 12.011 C_ONCV_PBE-1.0.upf upf201

NUMERICAL_ORBITAL
Si_gga_9au_100Ry_3s3p2d.orb
C_gga_9au_100Ry_3s3p2d.orb

LATTICE_CONSTANT
1.88972612546

LATTICE_VECTORS
8.68005651799 0 0 #latvec1
0.117510726499 9.13681881318 0 #latvec2
0.186982528237 -0.208319368957 8.80481222702 #latvec3

ATOMIC_POSITIONS
Cartesian

Si #label
0 #magnetism
32 #number of atoms
3.36898190907  1.06057796821  3.30645289237  m  1  1  1  v  2.01770079589e-05  -6.57608105145e-06  1.39095932127e-05
3.40169715322  0.982486793229  7.74711356758  m  1  1  1  v  8.30615591861e-06  -1.58144801691e-05  2.77912654796e-05
3.41103735555  5.4835547718  3.36646975505  m  1  1  1  v  -5.11394045277e-05  1.26380563744e-05  -1.14840056858e-05
3.43032355113  5.44555477573  7.78989541409  m  1  1  1  v  4.96141886441e-05  -5.51006930217e-05  4.26432159899e-06
7.8205956465  1.02895642047  3.2411964977  m  1  1  1  v  1.3981931597e-05  3.70634720726e-05  -2.74168264091e-05
7.87454494009  0.965808165096  7.68598212202  m  1  1  1  v  -7.73241070022e-08  -6.90050982369e-06  6.15865379865e-06
7.83840188536  5.44648916161  3.30259496176  m  1  1  1  v  -3.58965021797e-05  -5.97242840941e-06  -2.11758762705e-07
7.87512625009  5.41080758035  7.74941640005  m  1  1  1  v  2.34993472503e-05  2.34035127965e-05  -3.99428281672e-05
3.37158605446  3.27958823621  1.10219239429  m  1  1  1  v  4.81841960591e-05  1.20144715974e-05  -1.56858076568e-06
3.38492451954  3.27105875846  5.54338058308  m  1  1  1  v  4.06927322086e-06  -1.6765463499e-05  2.32956136015e-05
3.39681542928  7.72648704091  1.17002308908  m  1  1  1  v  -3.95542596574e-06  4.13295679698e-05  -7.14952199395e-06
3.43779795605  7.65958250239  5.60715466367  m  1  1  1  v  1.46951061928e-05  -3.1339250761e-05  -2.41910611794e-05
7.80069778213  3.2639708128  1.07250491435  m  1  1  1  v  -6.47526364639e-06  -1.96149755154e-05  -2.81589208966e-05
7.84415990727  3.20599890436  5.51118959656  m  1  1  1  v  6.34691779131e-06  2.19435895493e-05  -9.08215779425e-06
7.85011190797  7.69698962338  1.11289892724  m  1  1  1  v  -9.59226192736e-06  -1.59733164086e-05  -4.43537373568e-05
7.8711104068  7.64415644235  5.54399744946  m  1  1  1  v  -5.22182108639e-07  -1.40244338753e-05  3.22663412498e-05
1.11433232284  1.08847693709  1.10744582036  m  1  1  1  v  -3.92118564325e-06  5.45610148414e-05  -4.34923931481e-07
1.16426276445  1.05606121871  5.53795727887  m  1  1  1  v  -2.20090657927e-05  -5.3545044529e-07  1.69975370252e-05
1.16793847111  5.50882175494  1.15703201172  m  1  1  1  v  2.00978039164e-07  6.24659718675e-06  -2.38537202989e-05
1.2092210811  5.46982826486  5.57119946559  m  1  1  1  v  1.69819284491e-05  3.52999992801e-05  -3.60001398044e-05
5.58166626589  1.0698865306  1.06854008825  m  1  1  1  v  4.89594820294e-06  -2.0523317423e-05  -5.42088695133e-06
5.60834596812  1.00072916663  5.49241042467  m  1  1  1  v  1.76307795907e-05  2.66566218539e-05  -1.40513262844e-05
5.58297536792  5.47968711923  1.12401918723  m  1  1  1  v  -1.39452949617e-05  1.09830283351e-05  -2.84603737904e-05
5.64394756308  5.44083551677  5.55964175491  m  1  1  1  v  2.5907775622e-05  1.544598437e-05  1.18033720827e-06
1.16010639259  3.27581049459  3.3515408278  m  1  1  1  v  2.15920527027e-06  2.49228455946e-05  -4.20510260939e-06
1.21354346167  3.22188237731  7.79318500509  m  1  1  1  v  1.17880211309e-05  -7.82244256971e-06  2.94142589223e-05
1.19790063585  7.72170728527  3.39067877704  m  1  1  1  v  -1.17780439914e-06  1.69858240707e-05  -3.73185656953e-06
1.24513109612  7.66334994777  7.8313799597  m  1  1  1  v  -4.55736898023e-05  5.10088508439e-05  -2.49860542668e-05
5.58013166236  3.24089990837  3.30530424874  m  1  1  1  v  1.22971176603e-05  -3.47424892603e-05  2.40722837765e-05
5.64936644449  3.20385853929  7.72761803917  m  1  1  1  v  -2.49934501961e-05  -5.18425507666e-06  -3.9190123572e-05
5.61684802517  7.69387100686  3.35111951176  m  1  1  1  v  -2.88503001617e-05  -1.29233618409e-05  3.42987239032e-05
5.69109594893  7.63348198009  7.79371532263  m  1  1  1  v  -6.06606577587e-05  1.41101308693e-06  3.926419669e-05

C #label
0 #magnetism
32 #number of atoms
0.504008414214  8.8641615602  8.7023555921  m  1  1  1  v  5.14033805791e-05  -3.53975179349e-05  5.01615598597e-05
0.237823291343  -0.0976595372609  4.33873226182  m  1  1  1  v  -3.49564946104e-05  -2.72899728935e-05  -3.96639917282e-05
0.396989008182  4.17373965433  8.76482385092  m  1  1  1  v  1.11855563644e-05  -5.54331374466e-05  -2.85202011965e-05
0.279647805758  4.33057348434  4.39427120927  m  1  1  1  v  1.02670149018e-05  -1.13812066724e-05  9.17421495083e-06
4.74889582344  8.89141529569  8.7753581399  m  1  1  1  v  -3.4564990281e-05  2.16206945678e-05  -2.69083881351e-05
4.48214145777  -0.0835271884336  4.38567358998  m  1  1  1  v  -6.61145009469e-06  -2.37718539561e-05  -2.21947894974e-05
4.45694515034  4.41975990885  0.0206244732737  m  1  1  1  v  2.42805038455e-05  2.72167701778e-05  1.51302756405e-06
4.51411021365  4.36272682423  4.43965149889  m  1  1  1  v  8.7689095425e-07  2.86096704786e-05  4.79244357726e-05
0.231480632759  2.14861284733  2.15656433912  m  1  1  1  v  -6.32455245672e-06  -2.95111270991e-05  -7.52984863861e-06
0.264469094881  2.06579866657  6.59382045882  m  1  1  1  v  4.28953101311e-05  1.90035897295e-05  5.74391270615e-05
0.26949426508  6.56945200249  2.20870158497  m  1  1  1  v  5.99544140987e-06  -4.4977418739e-05  -4.45290602256e-05
0.301339182571  6.52962876348  6.62314826358  m  1  1  1  v  -2.17049546518e-05  -7.70098582005e-05  2.80687337577e-05
4.47373602415  2.15955298856  2.17892594014  m  1  1  1  v  7.8077306335e-05  -4.91752671965e-05  1.00554887098e-05
4.5236934448  2.11716912077  6.63195155654  m  1  1  1  v  -3.2330219295e-05  9.54760314657e-06  6.06049947329e-05
4.5070555566  6.59994358234  2.24048927915  m  1  1  1  v  1.09070153235e-08  4.06399991487e-05  5.07395758176e-05
4.55537806228  6.56346960458  6.66729351177  m  1  1  1  v  1.92861628598e-05  4.80724403036e-06  9.74149433452e-07
2.23881473636  -0.036990832218  2.20900896232  m  1  1  1  v  7.28418113835e-05  7.96953246256e-07  -1.48459162896e-05
2.26879062997  -0.0807533586731  6.64389519505  m  1  1  1  v  5.35786845957e-06  3.08828604155e-05  -4.98106218971e-05
2.27737599035  4.39504831919  2.25356096766  m  1  1  1  v  1.5888781866e-05  -4.7517400958e-05  4.30355136038e-05
2.31913045684  4.3480751067  6.66974214982  m  1  1  1  v  -4.84089564358e-05  -2.56876038298e-05  -4.50283348848e-05
6.79543328443  9.0673335395  2.16115887768  m  1  1  1  v  -3.26623807208e-05  9.87912378403e-06  -4.73535894507e-05
6.72192872216  -0.106904303646  6.56800094404  m  1  1  1  v  1.72878384077e-05  2.54460938929e-06  1.72216041491e-05
6.7192532764  4.3665093886  2.19716334466  m  1  1  1  v  -7.52639675946e-05  1.62555048001e-05  1.16192960044e-05
6.75421244862  4.29816187944  6.62821916839  m  1  1  1  v  -3.08144377278e-05  -2.69444770293e-05  9.29187560716e-05
2.22015463543  2.18703606942  0.00801211626407  m  1  1  1  v  1.77852848625e-05  -7.08398904615e-07  -1.82397431004e-05
2.29451714394  2.15176003059  4.43153133294  m  1  1  1  v  2.79222341792e-05  -6.29508099695e-05  3.99229741533e-05
2.26165543372  6.6261429959  0.0445071108732  m  1  1  1  v  1.61708984036e-05  -1.70515722088e-05  7.68769641182e-05
2.30768440261  6.56974961611  4.49129893552  m  1  1  1  v  -1.54466266158e-05  -4.75494084166e-06  -7.56634806296e-05
6.85441678394  1.97637666087  8.76511551293  m  1  1  1  v  1.4387864644e-05  -3.11479706246e-05  3.06544237109e-06
6.71640753659  2.11859358013  4.4001787701  m  1  1  1  v  -2.4696192286e-05  -2.63961180814e-05  6.35710686503e-05
6.690923255  6.60632737847  0.0130799939878  m  1  1  1  v  4.6622299377e-05  4.52199978439e-05  -2.14374462784e-05
6.72573353967  6.55752196035  4.43196125115  m  1  1  1  v  -4.9160368437e-05  5.45753590777e-05  5.97246082081e-05
