ATOMIC_SPECIES
Si 28.085 Si_ONCV_PBE-1.0.upf upf201
C 12.011 C_ONCV_PBE-1.0.upf upf201

NUMERICAL_ORBITAL
Si_gga_9au_100Ry_3s3p2d.orb
C_gga_9au_100Ry_3s3p2d.orb

LATTICE_CONSTANT
1.88972612546

LATTICE_VECTORS
8.68005651799 0 0 #latvec1
0.117510726499 9.13681881318 0 #latvec2
0.186982528237 -0.208319368957 8.80481222702 #latvec3

ATOMIC_POSITIONS
Cartesian

Si #label
0 #magnetism
32 #number of atoms
3.36546237853  1.05389621783  3.30772990881  m  1  1  1  v  3.80753474656e-05  -9.30235741537e-05  4.34051798961e-06
3.40763553945  0.985191221162  7.74571842256  m  1  1  1  v  -7.1455335128e-06  7.06176282474e-05  4.0269185755e-05
3.40408965098  5.47952670957  3.36625205501  m  1  1  1  v  7.2925429304e-05  -9.68525802289e-05  4.65961724788e-05
3.42533538521  5.44483628452  7.79212373981  m  1  1  1  v  -0.000141284695841  4.01360777084e-05  8.51889778416e-06
7.81635064675  1.03451688524  3.23302028576  m  1  1  1  v  -7.9910964465e-05  -5.72965786006e-05  1.63225958545e-05
7.87577265143  0.955569421939  7.67878951865  m  1  1  1  v  5.47074863989e-05  -7.07133372008e-05  3.68912262945e-05
7.83400136811  5.44855056374  3.30620414634  m  1  1  1  v  -0.000112758030182  -7.10310324387e-05  0.00012286582442
7.8811493885  5.41900496707  7.74134277442  m  1  1  1  v  0.00021099204949  8.58327184298e-05  -0.000159981146863
3.3605181648  3.26983308588  1.10858110299  m  1  1  1  v  -0.00017151962746  -0.000165323989557  -2.03288120939e-05
3.38847668436  3.26955481691  5.5345888438  m  1  1  1  v  4.6200414139e-07  -5.61681679272e-05  1.27632954604e-05
3.39172999548  7.72837150896  1.17127030947  m  1  1  1  v  -0.000139431481478  2.96923448217e-05  0.000161250838913
3.4412277374  7.66095376418  5.6040476287  m  1  1  1  v  9.16778882611e-05  1.47303054541e-05  3.75698720738e-05
7.79627271585  3.26463953951  1.07706585737  m  1  1  1  v  -8.28651079844e-05  2.56004845016e-05  -5.79721120087e-05
7.84097313316  3.2071860866  5.50808896087  m  1  1  1  v  -3.94974259514e-05  8.11993550362e-05  2.13004779547e-05
7.85113011895  7.7006615462  1.11080644407  m  1  1  1  v  5.22855590098e-06  5.62020233112e-05  -1.38540434605e-06
7.87933712867  7.64890158206  5.5459657779  m  1  1  1  v  1.2864475613e-06  0.000129263403626  -5.88694644986e-05
1.12068626399  1.09123571628  1.11037117679  m  1  1  1  v  0.000119200850013  0.000166908065484  8.5208083358e-05
1.16543416835  1.0598047579  5.54180551982  m  1  1  1  v  1.77688845637e-05  0.00013417523706  -4.01294663389e-05
1.17056383181  5.50699368669  1.16157601532  m  1  1  1  v  -0.000143795030105  -1.29268200284e-05  2.76895040646e-05
1.20908269188  5.4756390722  5.5760151772  m  1  1  1  v  -0.000154497982104  -1.54861105685e-05  -3.0741199742e-05
5.58228053685  1.0605639575  1.06371789466  m  1  1  1  v  2.81475181137e-05  -0.000129284936637  -1.20549598255e-05
5.60912246892  1.00659344066  5.49268504763  m  1  1  1  v  -2.96172144036e-05  -4.3373943634e-05  -6.37523455109e-05
5.58267838704  5.47392136871  1.12411331394  m  1  1  1  v  8.56247654025e-06  -8.00827911732e-05  -4.97580465525e-05
5.63790698105  5.44701115744  5.55176226051  m  1  1  1  v  -4.10323057861e-05  0.000118063350014  3.79282803765e-05
1.16725740554  3.27336328508  3.35615061167  m  1  1  1  v  2.2203819977e-05  0.000132804489255  1.31192433588e-05
1.22473471378  3.21624332947  7.79238782411  m  1  1  1  v  3.93566859506e-05  -0.000124939441108  -0.000182269799856
1.19565365262  7.72920305778  3.39216227277  m  1  1  1  v  -4.3946946048e-05  3.21818500321e-05  -0.00014478203007
1.25903624327  7.65499755225  7.82166985488  m  1  1  1  v  7.34924930982e-05  -2.88704270706e-05  1.765873191e-05
5.58573703379  3.24033229344  3.30705621942  m  1  1  1  v  1.12316996294e-05  1.89767129782e-05  -0.000153625063396
5.65317683837  3.20493992609  7.72075823955  m  1  1  1  v  7.86833097837e-05  2.24004866096e-05  -0.000140919757033
5.61926337969  7.70545329404  3.34938735987  m  1  1  1  v  7.06432330588e-05  0.0001149497583  -1.71108505522e-05
5.68961703951  7.6373554737  7.79125458843  m  1  1  1  v  5.36913537307e-05  -0.000152867058874  -7.13126455766e-05

C #label
0 #magnetism
32 #number of atoms
0.485114192873  8.87779936334  8.71626670107  m  1  1  1  v  -0.000167857252367  0.000137198962344  0.000259579879477
0.228145929464  -0.0957200034964  4.34102596576  m  1  1  1  v  0.000178584009578  -4.02749975988e-06  2.19890319342e-05
0.365044001528  4.19135780658  8.77956290301  m  1  1  1  v  -0.000211463805158  0.000141710413705  1.42277583386e-05
0.256258268509  4.33772489506  4.40287636491  m  1  1  1  v  -6.31443073993e-05  -2.08553507296e-05  0.000184602364666
4.741047578  8.89397779082  8.77772246348  m  1  1  1  v  -0.000192140766364  0.000110591913819  0.000176769100985
4.48596987822  -0.086745586327  4.39616037397  m  1  1  1  v  -8.45559999006e-06  -0.000276139261806  9.83999146364e-05
4.44240603104  4.42154540813  0.0186572048043  m  1  1  1  v  -0.000286010461924  -0.000120953800182  -0.000204616051307
4.51494455148  4.36934310093  4.43403447204  m  1  1  1  v  -0.000130055890783  0.000283300526052  0.000192514498112
0.220090435453  2.15837869793  2.16824892981  m  1  1  1  v  -7.00186601168e-05  8.7397321428e-05  -2.3845391545e-06
0.255194756787  2.07488827859  6.60741069716  m  1  1  1  v  -9.8478400812e-05  0.000194615797905  8.04416918273e-05
0.254199145289  6.57488119103  2.2109122893  m  1  1  1  v  -0.000167587418887  0.000131159387626  0.00018221589625
0.298109592612  6.52992278514  6.62503648696  m  1  1  1  v  -4.09774538993e-05  2.11504521204e-05  0.000223136765398
4.46853115187  2.16431480596  2.18394360441  m  1  1  1  v  5.10841709953e-05  -9.87199516082e-05  0.000156414241299
4.5250099413  2.13285532127  6.62414075606  m  1  1  1  v  -0.000113769653555  -9.54176038488e-05  -0.000278985742878
4.49990198721  6.58981640718  2.2318381843  m  1  1  1  v  3.3709655244e-05  -0.000206070581244  0.000231321046656
4.55756543831  6.56432581064  6.6603911115  m  1  1  1  v  -0.000170634570273  -0.000216675212657  -0.000312508309616
2.23411782869  -0.0433328847702  2.20015349203  m  1  1  1  v  -6.8819399692e-05  -0.000194512158207  -0.000144179206404
2.2638468555  -0.0823990704778  6.64696569123  m  1  1  1  v  6.88320518375e-05  4.61233589264e-06  -0.000228073589749
2.27336796568  4.38895366502  2.25413476409  m  1  1  1  v  -9.65876870438e-05  -0.000228305323855  0.000154567937098
2.33141494377  4.3503910151  6.66179342612  m  1  1  1  v  -0.000176543081058  0.000103852448477  -6.76805278335e-05
6.79249109362  9.06741057853  2.17474763751  m  1  1  1  v  -0.000129925484701  -7.50858822213e-05  -2.30391152498e-05
6.73359958167  -0.126477025806  6.56638295319  m  1  1  1  v  -1.51998047176e-05  -1.72303661453e-05  -2.08169588096e-05
6.73208314605  4.36069142738  2.18927747842  m  1  1  1  v  0.000132302004258  9.82604268413e-05  -0.000116107309036
6.75015422311  4.31088000558  6.62781891646  m  1  1  1  v  -3.45492351418e-05  0.000341030166642  0.000141159784652
2.21883271816  2.18887160126  0.00804389411841  m  1  1  1  v  -1.90375886728e-05  7.59267536262e-05  -2.39666772431e-05
2.29641705153  2.1562949464  4.42050132655  m  1  1  1  v  -0.000114707760439  -0.000188325347292  8.30308797434e-05
2.25131681617  6.63647534151  0.0578080395435  m  1  1  1  v  -0.000138731546561  0.000163485314119  -8.36267088745e-07
2.30909631395  6.57109664289  4.49066592765  m  1  1  1  v  0.000129727825598  0.000142255808507  6.04889479797e-05
6.84694647331  1.98827742532  8.77422380593  m  1  1  1  v  -0.000143568799273  3.57254589947e-05  0.000226555095749
6.71288143857  2.11688537221  4.39374665765  m  1  1  1  v  7.91660002724e-05  -0.000152088667507  -5.44237471123e-05
6.67662015915  6.62217582154  0.0231236920568  m  1  1  1  v  -5.52980092654e-05  0.000115652832399  -1.67796046099e-05
6.73969025105  6.56174601853  4.42426096663  m  1  1  1  v  -1.21797342755e-05  5.94248778944e-05  3.37018911309e-05
