ATOMIC_SPECIES
O 1.00 ../../../psp_orb/O_ONCV_PBE-1.0.upf
H 1.00 ../../../psp_orb/H_ONCV_PBE-1.0.upf

LATTICE_CONSTANT
1

LATTICE_VECTORS
37.7945375554 0.0 0.0 
0.0 37.7945375554 0.0 
0.0 0.0 37.7945375554 

ATOMIC_POSITIONS
Cartesian

O
0.0
2
34.973685187176 37.224306759108 37.180632258848 0 0 0
2.435161881992 0.539857344182 0.583832491645 0 0 0
H
0.0
4
35.006519560769 36.135955182171 35.762241218597 0 0 0
36.715260613362 37.590087656456 37.338362263228 0 0 0
2.637464944283 0.046818668651 2.334759180361 0 0 0
2.900866366451 2.311359271414 0.630976594911 0 0 0

NUMERICAL_ORBITAL
../../../psp_orb/O_gga_7au_100Ry_2s2p1d.orb
../../../psp_orb/H_gga_6au_100Ry_2s1p.orb

NUMERICAL_DESCRIPTOR
../../../psp_orb/jle.orb
