ATOMIC_SPECIES
Si 28.085 Si_ONCV_PBE-1.0.upf upf201
C 12.011 C_ONCV_PBE-1.0.upf upf201

NUMERICAL_ORBITAL
Si_gga_9au_100Ry_3s3p2d.orb
C_gga_9au_100Ry_3s3p2d.orb

LATTICE_CONSTANT
1.88972612546

LATTICE_VECTORS
8.659006617 0 0 #latvec1
0.00333964913529 8.73195451122 0 #latvec2
0.0290075940507 -0.0515124040037 8.66493111006 #latvec3

ATOMIC_POSITIONS
Cartesian

Si #label
0 #magnetism
32 #number of atoms
3.26621116272  1.08067062933  3.26984193702  m  1  1  1  v  2.01770079589e-05  -6.57608105145e-06  1.39095932127e-05
3.28216527079  1.07081406475  7.59802419044  m  1  1  1  v  8.30615591861e-06  -1.58144801691e-05  2.77912654796e-05
3.26670162841  5.42445408972  3.28409198195  m  1  1  1  v  -5.11394045277e-05  1.26380563744e-05  -1.14840056858e-05
3.27095539513  5.40816633576  7.62322870713  m  1  1  1  v  4.96141886441e-05  -5.51006930217e-05  4.26432159899e-06
7.63218410959  1.08307183101  3.25917714203  m  1  1  1  v  1.3981931597e-05  3.70634720726e-05  -2.74168264091e-05
7.62441497098  1.07153603066  7.6071589174  m  1  1  1  v  -7.73241070022e-08  -6.90050982369e-06  6.15865379865e-06
7.6100388113  5.4362514405  3.2658066686  m  1  1  1  v  -3.58965021797e-05  -5.97242840941e-06  -2.11758762705e-07
7.62621616501  5.41049386744  7.6203151484  m  1  1  1  v  2.34993472503e-05  2.34035127965e-05  -3.99428281672e-05
3.27226750673  3.27050595114  1.08664809083  m  1  1  1  v  4.81841960591e-05  1.20144715974e-05  -1.56858076568e-06
3.27189380865  3.26144465725  5.42601826247  m  1  1  1  v  4.06927322086e-06  -1.6765463499e-05  2.32956136015e-05
3.25554091664  7.59219707256  1.10518856031  m  1  1  1  v  -3.95542596574e-06  4.13295679698e-05  -7.14952199395e-06
3.27367961266  7.60311254808  5.44711364317  m  1  1  1  v  1.46951061928e-05  -3.1339250761e-05  -2.41910611794e-05
7.61202282343  3.24185697187  1.08228875295  m  1  1  1  v  -6.47526364639e-06  -1.96149755154e-05  -2.81589208966e-05
7.624596288  3.23492206253  5.42746173438  m  1  1  1  v  6.34691779131e-06  2.19435895493e-05  -9.08215779425e-06
7.63597633295  7.60524270135  1.0857048296  m  1  1  1  v  -9.59226192736e-06  -1.59733164086e-05  -4.43537373568e-05
7.60726780598  7.5760343185  5.45534114608  m  1  1  1  v  -5.22182108639e-07  -1.40244338753e-05  3.22663412498e-05
1.08307588807  1.08283502698  1.07526066441  m  1  1  1  v  -3.92118564325e-06  5.45610148414e-05  -4.34923931481e-07
1.10708668293  1.06843321289  5.44625774297  m  1  1  1  v  -2.20090657927e-05  -5.3545044529e-07  1.69975370252e-05
1.07788931407  5.43654897321  1.10017127867  m  1  1  1  v  2.00978039164e-07  6.24659718675e-06  -2.38537202989e-05
1.10545935537  5.41912878002  5.45676479616  m  1  1  1  v  1.69819284491e-05  3.52999992801e-05  -3.60001398044e-05
5.43767701259  1.0776677244  1.09112386257  m  1  1  1  v  4.89594820294e-06  -2.0523317423e-05  -5.42088695133e-06
5.44671871896  1.07105278353  5.42524784553  m  1  1  1  v  1.76307795907e-05  2.66566218539e-05  -1.40513262844e-05
5.45173829942  5.4169317108  1.09606745789  m  1  1  1  v  -1.39452949617e-05  1.09830283351e-05  -2.84603737904e-05
5.43245266237  5.4239003592  5.45103975501  m  1  1  1  v  2.5907775622e-05  1.544598437e-05  1.18033720827e-06
1.09818627355  3.24742462304  3.27758736715  m  1  1  1  v  2.15920527027e-06  2.49228455946e-05  -4.20510260939e-06
1.08933803138  3.26123585935  7.62365987793  m  1  1  1  v  1.17880211309e-05  -7.82244256971e-06  2.94142589223e-05
1.10436127406  7.60459221065  3.27325805814  m  1  1  1  v  -1.17780439914e-06  1.69858240707e-05  -3.73185656953e-06
1.10092223645  7.57845909333  7.64389870719  m  1  1  1  v  -4.55736898023e-05  5.10088508439e-05  -2.49860542668e-05
5.45255003375  3.24594711518  3.25330925651  m  1  1  1  v  1.22971176603e-05  -3.47424892603e-05  2.40722837765e-05
5.4447535912  3.24435847238  7.6185561443  m  1  1  1  v  -2.49934501961e-05  -5.18425507666e-06  -3.9190123572e-05
5.44153457436  7.59634601576  3.25520163504  m  1  1  1  v  -2.88503001617e-05  -1.29233618409e-05  3.42987239032e-05
5.44496310213  7.59053620661  7.6261018505  m  1  1  1  v  -6.06606577587e-05  1.41101308693e-06  3.926419669e-05

C #label
0 #magnetism
32 #number of atoms
0.0414311678451  8.73074685749  0.000790680874053  m  1  1  1  v  5.14033805791e-05  -3.53975179349e-05  5.01615598597e-05
0.0481377397658  -0.023082185898  4.32581270507  m  1  1  1  v  -3.49564946104e-05  -2.72899728935e-05  -3.96639917282e-05
0.0744901896794  4.2880434839  8.66225046208  m  1  1  1  v  1.11855563644e-05  -5.54331374466e-05  -2.85202011965e-05
0.0507492156906  4.31965037585  4.35845682292  m  1  1  1  v  1.02670149018e-05  -1.13812066724e-05  9.17421495083e-06
4.39039105279  -0.0469087740963  8.65642711546  m  1  1  1  v  -3.4564990281e-05  2.16206945678e-05  -2.69083881351e-05
4.36970903774  8.70086324493  4.34282444272  m  1  1  1  v  -6.61145009469e-06  -2.37718539561e-05  -2.21947894974e-05
4.35264928021  4.34227947709  0.00686771349912  m  1  1  1  v  2.42805038455e-05  2.72167701778e-05  1.51302756405e-06
4.33234320119  4.3392056594  4.3518936431  m  1  1  1  v  8.7689095425e-07  2.86096704786e-05  4.79244357726e-05
0.0250489581028  2.17987819718  2.16084704832  m  1  1  1  v  -6.32455245672e-06  -2.95111270991e-05  -7.52984863861e-06
0.042814377156  2.15282553712  6.53059560577  m  1  1  1  v  4.28953101311e-05  1.90035897295e-05  5.74391270615e-05
0.0420315407199  6.51370478024  2.17218795296  m  1  1  1  v  5.99544140987e-06  -4.4977418739e-05  -4.45290602256e-05
0.0577703904351  6.51395841143  6.5385973118  m  1  1  1  v  -2.17049546518e-05  -7.70098582005e-05  2.80687337577e-05
4.359990967  2.17138961691  2.18398029974  m  1  1  1  v  7.8077306335e-05  -4.91752671965e-05  1.00554887098e-05
4.36405496738  2.15106261172  6.52483274509  m  1  1  1  v  -3.2330219295e-05  9.54760314657e-06  6.06049947329e-05
4.36283651417  6.50012789303  2.1705065185  m  1  1  1  v  1.09070153235e-08  4.06399991487e-05  5.07395758176e-05
4.35855294177  6.50837223541  6.52926633554  m  1  1  1  v  1.92861628598e-05  4.80724403036e-06  9.74149433452e-07
2.19121477609  8.71612740739  2.17102012547  m  1  1  1  v  7.28418113835e-05  7.96953246256e-07  -1.48459162896e-05
2.17283690519  -0.0196341528476  6.53211895352  m  1  1  1  v  5.35786845957e-06  3.08828604155e-05  -4.98106218971e-05
2.18300442632  4.33406862806  2.18326661104  m  1  1  1  v  1.5888781866e-05  -4.7517400958e-05  4.30355136038e-05
2.18086935931  4.32619944957  6.53950801795  m  1  1  1  v  -4.84089564358e-05  -2.56876038298e-05  -4.50283348848e-05
6.51662762404  0.00581162821393  2.17148451057  m  1  1  1  v  -3.26623807208e-05  9.87912378403e-06  -4.73535894507e-05
6.53932541877  -0.0320809976754  6.51575202765  m  1  1  1  v  1.72878384077e-05  2.54460938929e-06  1.72216041491e-05
6.53433610769  4.33549827227  2.18679636544  m  1  1  1  v  -7.52639675946e-05  1.62555048001e-05  1.16192960044e-05
6.54113084637  4.32763400671  6.51975087462  m  1  1  1  v  -3.08144377278e-05  -2.69444770293e-05  9.29187560716e-05
2.18240306871  2.16242833746  0.0101089651864  m  1  1  1  v  1.77852848625e-05  -7.08398904615e-07  -1.82397431004e-05
2.17039584267  2.14510096433  4.34449482664  m  1  1  1  v  2.79222341792e-05  -6.29508099695e-05  3.99229741533e-05
2.18435202838  6.51601043711  0.0253818316368  m  1  1  1  v  1.61708984036e-05  -1.70515722088e-05  7.68769641182e-05
2.16991938641  6.49446491128  4.36727279291  m  1  1  1  v  -1.54466266158e-05  -4.75494084166e-06  -7.56634806296e-05
6.55011450921  2.12073991496  8.66210287022  m  1  1  1  v  1.4387864644e-05  -3.11479706246e-05  3.06544237109e-06
6.52579209685  2.16563011462  4.33728288056  m  1  1  1  v  -2.4696192286e-05  -2.63961180814e-05  6.35710686503e-05
6.52641777621  6.51233682555  0.00976108017987  m  1  1  1  v  4.6622299377e-05  4.52199978439e-05  -2.14374462784e-05
6.5439790941  6.49775935939  4.35452022676  m  1  1  1  v  -4.9160368437e-05  5.45753590777e-05  5.97246082081e-05
