ATOMIC_SPECIES
Si 28.085 Si_ONCV_PBE-1.0.upf upf201
C 12.011 C_ONCV_PBE-1.0.upf upf201

NUMERICAL_ORBITAL
Si_gga_9au_100Ry_3s3p2d.orb
C_gga_9au_100Ry_3s3p2d.orb

LATTICE_CONSTANT
1.88972612546

LATTICE_VECTORS
8.659006617 0 0 #latvec1
0.00333964913529 8.73195451122 0 #latvec2
0.0290075940507 -0.0515124040037 8.66493111006 #latvec3

ATOMIC_POSITIONS
Cartesian

Si #label
0 #magnetism
32 #number of atoms
3.26772890883  1.07866595988  3.28054223499  m  1  1  1  v  -0.00015764778568  -5.57214764042e-05  0.000117974353724
3.27798424874  1.0798575807  7.59476460193  m  1  1  1  v  -3.16618857483e-05  4.16929472652e-05  -0.000205466916094
3.27540769706  5.41323133365  3.2779070797  m  1  1  1  v  0.000233326697599  -2.64974506496e-05  -0.000240872553801
3.25525179845  5.41132880238  7.61899368769  m  1  1  1  v  -0.000185524776122  -6.72229244589e-05  3.87119539169e-06
7.61728952467  1.08967367994  3.25043223374  m  1  1  1  v  4.9320820999e-06  5.47049500504e-05  -5.71438343067e-05
7.61959747742  1.05926367652  7.60790959091  m  1  1  1  v  0.000157663694757  -0.000253441945221  5.31613082932e-05
7.60317771722  5.42561145064  3.26724122352  m  1  1  1  v  0.0001512302656  -0.000175311053469  -0.000173292850282
7.63491499469  5.42667936452  7.59584892492  m  1  1  1  v  0.000144430595555  0.000137916349926  -7.45085263905e-05
3.25614043462  3.26773256139  1.09772507294  m  1  1  1  v  -0.000240485693143  0.000196654402401  0.000152695271551
3.2731313816  3.25641605019  5.43209578301  m  1  1  1  v  4.50180090511e-05  -0.000160703266652  0.000170773814641
3.2411322594  7.58902427639  1.11522434935  m  1  1  1  v  0.000147106544796  2.61253849517e-05  -0.000205971360747
3.29161143832  7.60598418259  5.45495454474  m  1  1  1  v  -7.95021934769e-05  -6.87143067656e-06  0.000172655042223
7.60395770592  3.24721953045  1.07050993274  m  1  1  1  v  5.73033319188e-05  -9.71903205584e-05  -0.000171112887979
7.61988459136  3.23787094792  5.42992203243  m  1  1  1  v  0.00014223950353  3.41813647224e-05  8.85053188288e-05
7.61949781172  7.59031697948  1.094204468  m  1  1  1  v  -0.000166101060349  -0.00027219338857  0.000140328848731
7.62163975849  7.58622182416  5.45914405264  m  1  1  1  v  0.000111160347482  0.000200439778706  -0.000122194929158
1.10366676242  1.09717359745  1.07975242261  m  1  1  1  v  0.00016298426955  1.96027824661e-06  5.28260627368e-05
1.08786658557  1.0837474494  5.4518957562  m  1  1  1  v  -4.14996161834e-06  0.000141155506343  -0.000143952435909
1.05529728653  5.43145391221  1.1069253757  m  1  1  1  v  -7.31605682115e-05  -9.12719587602e-05  6.95236308293e-05
1.10154407812  5.42655807586  5.45439791524  m  1  1  1  v  5.3439191444e-05  -4.84034389912e-05  -9.5078636299e-05
5.44302124654  1.0758384692  1.09367504281  m  1  1  1  v  -0.00011803810502  9.9506641436e-05  0.00025304250632
5.45852244494  1.06700156506  5.40810829021  m  1  1  1  v  1.55375788565e-05  3.35748199484e-05  -8.21007193112e-05
5.45249241297  5.41560393545  1.08919658078  m  1  1  1  v  0.000198122292568  9.11231378849e-05  -0.000190314152578
5.43214419762  5.43750438731  5.4554890304  m  1  1  1  v  1.92841005083e-05  -9.4208159372e-05  0.000156460625117
1.09079942027  3.25700669879  3.27534258513  m  1  1  1  v  -0.000210822298775  6.94598348914e-05  0.000197862934232
1.09122042449  3.25369212699  7.6212627943  m  1  1  1  v  -6.95614639646e-05  -0.000157694853437  5.07559147695e-05
1.09133503125  7.61583870926  3.26053171493  m  1  1  1  v  -0.000179407639888  1.85842171542e-05  6.94998156763e-05
1.12067435422  7.58332338818  7.63370518878  m  1  1  1  v  0.000192780524798  1.02054770254e-05  -0.000126301610955
5.45672495211  3.2375099647  3.25569220387  m  1  1  1  v  3.88167481983e-05  -9.72729417275e-05  0.000130290480227
5.43981339424  3.24132745944  7.60391636344  m  1  1  1  v  -0.000206404766225  -6.27728701154e-05  8.09259005438e-05
5.44688605472  7.600043575  3.25728652163  m  1  1  1  v  3.00098824282e-05  0.000168442921102  0.000181334952301
5.44633063006  7.59192290552  7.61153448829  m  1  1  1  v  -4.36160507014e-05  -0.000139648974889  -0.000111383781414

C #label
0 #magnetism
32 #number of atoms
0.0515659151419  0.0169541661808  0.00217833976503  m  1  1  1  v  -0.000257743686705  6.7977075302e-05  -9.41426633474e-06
0.0643751530882  -0.0129262752524  4.32928345454  m  1  1  1  v  -5.59869914778e-05  0.000114487596682  -0.000131541894067
0.0214128336058  4.34628321813  0.00585911405238  m  1  1  1  v  -0.000292702679003  0.000310425094573  -2.71212521629e-06
0.0656897304325  4.30782948902  4.36563478239  m  1  1  1  v  -1.50207041867e-06  0.000187053171383  0.000260652202928
4.32781232434  0.0237691740099  0.00147356775314  m  1  1  1  v  0.000146695808732  0.000335363601012  0.000299240750123
4.37058097014  8.70579167575  4.34849342906  m  1  1  1  v  0.000240184992226  0.000120207429672  0.000263522880233
4.35611991633  4.30193763565  8.66280414094  m  1  1  1  v  8.1326135201e-05  -0.000287028287109  0.000135835676441
4.33107974156  4.33270627369  4.33996722372  m  1  1  1  v  -0.00019350383673  -0.000111567496726  3.31232210912e-05
0.0140907079216  2.18656889517  2.16735768276  m  1  1  1  v  -8.98433941664e-05  -8.54619622664e-05  0.000263463197762
0.0272814261847  2.15078331431  6.52197092997  m  1  1  1  v  0.000178834404177  -0.000130408563128  5.96038050375e-05
0.0479458349392  6.50974762131  2.17719379335  m  1  1  1  v  -2.12247162116e-05  0.000159691536462  -0.0003553096088
0.0799252577583  6.51738432969  6.55537637067  m  1  1  1  v  -4.52782451457e-05  -0.000377155310047  0.000237435551555
4.34471898978  2.15690666882  2.1971089033  m  1  1  1  v  -0.000141090234459  -0.000118811842487  1.66155800955e-05
4.3550320958  2.13472315892  6.48223415525  m  1  1  1  v  -0.00016539311459  -6.02400420628e-05  -0.00028962091639
4.35566240827  6.47950147972  2.17242839635  m  1  1  1  v  -0.000419083621577  8.1836692996e-05  4.9699726679e-05
4.35907909548  6.50447759176  6.52578357688  m  1  1  1  v  0.000357520695027  -0.000196487808814  0.000198782420473
2.18812216546  8.70550712101  2.18462870414  m  1  1  1  v  0.000121037919528  0.000383666624213  0.000388009435476
2.17177381126  0.0103044301888  6.51667932203  m  1  1  1  v  -0.000245613756919  9.50476722887e-05  -0.000212719258098
2.16850143784  4.33960112733  2.21535268326  m  1  1  1  v  -0.000244006094584  5.03070281387e-05  0.00016610945211
2.19250456836  4.33575109869  6.51237219724  m  1  1  1  v  1.99962414729e-05  0.000215894804329  -0.00042807388447
6.531152385  0.0187503880568  2.17256667602  m  1  1  1  v  7.25432791151e-05  0.000200325504075  0.000202650737333
6.56323640313  8.69189199053  6.50252621439  m  1  1  1  v  0.000182584443013  -0.000263798433265  -0.000158745620708
6.54964994902  4.33798734432  2.19392202578  m  1  1  1  v  -5.6477277154e-05  8.36618601764e-05  0.000178549893248
6.52184854541  4.34277443383  6.52850924248  m  1  1  1  v  1.63808884443e-05  -0.000106458193915  0.000102276117137
2.20955920761  2.12836311014  8.6596971865  m  1  1  1  v  -0.000326903747597  6.41478087583e-06  -0.000312691486775
2.19374874823  2.14160699556  4.34323879797  m  1  1  1  v  0.000218172876629  -0.000141671745073  -2.3137823363e-05
2.16662653305  6.52140472246  0.00373178254357  m  1  1  1  v  -9.89056223582e-05  -1.68308208025e-05  -0.000129507087495
2.17101271725  6.49656943679  4.35184712088  m  1  1  1  v  -0.000180409134629  0.000238322567214  -1.32696884733e-05
6.50639256924  2.16086905997  0.00655309880195  m  1  1  1  v  7.56256310316e-05  2.73012255942e-06  2.2856162744e-05
6.51566022856  2.16917056009  4.33143558124  m  1  1  1  v  -0.000198282973729  -1.16445129996e-05  0.000259068686863
6.50140602716  6.51571854571  0.0190842067437  m  1  1  1  v  -0.000148981795918  9.41991520303e-05  -9.6794319733e-06
6.5513020639  6.49707502698  4.362551998  m  1  1  1  v  1.52785430078e-05  0.000284028977565  -0.00028599863528
