ATOMIC_SPECIES
Si 28.085 Si_ONCV_PBE-1.0.upf upf201
C 12.011 C_ONCV_PBE-1.0.upf upf201

NUMERICAL_ORBITAL
Si_gga_9au_100Ry_3s3p2d.orb
C_gga_9au_100Ry_3s3p2d.orb

LATTICE_CONSTANT
1.88972612546

LATTICE_VECTORS
8.62662183104 0 0 #latvec1
0.238767848833 8.92663979417 0 #latvec2
-0.0403890979807 0.201450271947 8.94439871575 #latvec3

ATOMIC_POSITIONS
Cartesian

Si #label
0 #magnetism
32 #number of atoms
3.30123838646  1.0835688156  3.29442139918  m  1  1  1  v  -0.000162315638822  -5.76783645617e-05  0.000125223410012
3.28551502936  1.16126362862  7.68077781891  m  1  1  1  v  -3.96579944279e-05  4.98374577115e-05  -0.000169579089101
3.36297599081  5.46065016671  3.23844754433  m  1  1  1  v  0.000239949934012  -3.00274660624e-05  -0.000233369088757
3.33313848154  5.53110690865  7.64771454851  m  1  1  1  v  -0.000196477415434  -5.15237248251e-05  4.08811551512e-05
7.67825889501  1.03336495721  3.29367451863  m  1  1  1  v  2.09585810519e-06  5.4232714724e-05  -5.8798038058e-05
7.67855771613  1.07774943763  7.70563248296  m  1  1  1  v  0.000143066704011  -0.000240568664459  8.84862263654e-05
7.73254254068  5.41114218401  3.25850287723  m  1  1  1  v  0.000139421436253  -0.000167085789007  -0.000177426317031
7.75183211782  5.47827960851  7.61101311012  m  1  1  1  v  0.000133567212247  0.000155237233697  -3.1560539676e-05
3.32334715458  3.26071946275  1.08208443022  m  1  1  1  v  -0.000239802240803  0.000197799923228  0.000134947156309
3.31917033467  3.31199649446  5.47351962077  m  1  1  1  v  5.09238595117e-05  -0.000156554863983  0.000162057914082
3.39043918233  7.65509694854  1.02896450461  m  1  1  1  v  0.000148719872684  4.05909725058e-05  -0.000203268961985
3.4160110911  7.7110251054  5.40896971171  m  1  1  1  v  -6.96442448426e-05  1.57865293533e-05  0.000182335185054
7.71845022494  3.21118982795  1.04804615863  m  1  1  1  v  5.22401599941e-05  -0.000105748771962  -0.00017929187641
7.71060833242  3.24518953872  5.47620306017  m  1  1  1  v  0.000136631791774  3.54665217912e-05  8.06223376242e-05
7.76456786435  7.59846273773  1.04801395758  m  1  1  1  v  -0.000153820686799  -0.000258634317913  0.000130101341822
7.80227582951  7.66438575428  5.43861780033  m  1  1  1  v  0.000102490038228  0.000219431228673  -0.000111876965772
1.14378136642  1.1060219048  1.08299027175  m  1  1  1  v  0.000182537902849  -2.34205192638e-05  2.99383497453e-05
1.09428091709  1.15694906402  5.48893174429  m  1  1  1  v  2.79646114451e-05  0.000117319966473  -0.000156506249418
1.16500375151  5.4825389835  1.0381690668  m  1  1  1  v  -5.64755201758e-05  -0.000107265624927  5.04432699205e-05
1.170389933  5.52741986061  5.42710855276  m  1  1  1  v  8.38357311314e-05  -6.08109571158e-05  -0.000103794066426
5.4997947509  1.02765491609  1.0964791987  m  1  1  1  v  -0.000115397881374  9.10678988521e-05  0.000241235574028
5.50509600314  1.08363272196  5.47441970291  m  1  1  1  v  1.2783173864e-05  2.64977977451e-05  -8.61033028729e-05
5.55604903488  5.42857591879  1.03303282855  m  1  1  1  v  0.000204316598548  8.53350094672e-05  -0.000199157000375
5.57047190318  5.5071120103  5.44838262496  m  1  1  1  v  6.14777499535e-06  -9.74545909688e-05  0.000160632827083
1.12870238862  3.32286716876  3.25717949591  m  1  1  1  v  -0.000182115359114  4.88747041214e-05  0.000192159248591
1.12815571382  3.37411359331  7.65663029892  m  1  1  1  v  -6.51962756594e-05  -0.000146451815933  9.23727451235e-05
1.19290691707  7.72696714303  3.18771591911  m  1  1  1  v  -0.000149544466951  2.78780217574e-05  7.74096395238e-05
1.22019453949  7.76754954704  7.61527240415  m  1  1  1  v  0.000206712974769  3.05675161844e-05  -8.06455886655e-05
5.53363330574  3.24210331223  3.27294378124  m  1  1  1  v  4.13963861713e-05  -0.000103248223562  0.000124264176963
5.50848883949  3.29988585646  7.65652235296  m  1  1  1  v  -0.000215871621622  -4.62021996632e-05  0.000120121255195
5.59112861003  7.65869982428  3.21521664271  m  1  1  1  v  3.71239351552e-05  0.000190783804681  0.000190711376906
5.57904491814  7.70086276478  7.59892432148  m  1  1  1  v  -3.88338562859e-05  -0.00010995003903  -6.94775862639e-05

C #label
0 #magnetism
32 #number of atoms
0.408140727479  8.82622527168  0.00379328212178  m  1  1  1  v  -0.00029120990916  1.80941294934e-05  -9.2270661452e-05
0.386037010549  8.86603233859  4.41411182405  m  1  1  1  v  -0.000103022989109  0.000101260876104  -0.000160301481743
0.161063846822  4.47100809984  8.91059953273  m  1  1  1  v  -0.000296089134049  0.000298199617642  -8.76498632104e-05
0.206510049516  4.31935767715  4.38044443459  m  1  1  1  v  -5.50774028914e-05  0.000215892134746  0.000290644781677
4.56633720928  9.07314287413  8.9390640771  m  1  1  1  v  0.000133664025306  0.00028824875796  0.000223602808486
4.63094613398  8.91577962558  4.4040331458  m  1  1  1  v  0.000219281792448  7.16966747865e-05  0.000244619871477
4.39657432737  4.53602314211  8.87555923792  m  1  1  1  v  9.26392104473e-05  -0.000325470505934  8.1903670858e-05
4.4384354787  4.36028151748  4.35126794972  m  1  1  1  v  -0.000212625875728  -9.17485614375e-05  3.32837523306e-05
0.151118982639  2.11960469928  2.20371318144  m  1  1  1  v  -0.000158964614748  -3.52205512702e-05  0.000269263031239
0.142607703174  2.16692571271  6.57571600292  m  1  1  1  v  0.000115994930375  -8.47059844906e-05  0.000103133813219
0.225864543027  6.49662401815  2.15437316373  m  1  1  1  v  -6.54027286023e-05  0.000203587220675  -0.000340750047894
0.249143780264  6.55851270911  6.55328206748  m  1  1  1  v  -8.18934422369e-05  -0.000317899308905  0.000277601864828
4.39355786155  2.13546003332  2.19340636653  m  1  1  1  v  -0.000129273238239  -0.000109887188448  2.31976399437e-05
4.40143040277  2.1968451099  6.52758845513  m  1  1  1  v  -0.000171328483319  -6.58317059578e-05  -0.000268994504857
4.48260908886  6.52585127008  2.14823006809  m  1  1  1  v  -0.000420324490651  8.13725944674e-05  3.37849704146e-05
4.45862084178  6.60138712971  6.52913028663  m  1  1  1  v  0.000372368847954  -0.000194016676337  0.000194507539581
2.42551921108  8.90111185182  2.22099908367  m  1  1  1  v  0.000111553101884  0.000326418092723  0.000356207061445
2.40630355133  8.99877859479  6.58103611423  m  1  1  1  v  -0.00026395962932  5.94587379074e-05  -0.000227079027632
2.23236546549  4.3869439565  2.19010922737  m  1  1  1  v  -0.000228624167954  4.12165711317e-05  0.000163465903914
2.25723432107  4.4491566182  6.51997643644  m  1  1  1  v  1.9460698967e-05  0.000214260383166  -0.000409391209845
6.82873273849  8.8789978552  2.20540082281  m  1  1  1  v  3.57172286656e-05  0.000173619848157  0.000185229169098
6.82534548117  8.89151156373  6.58683068956  m  1  1  1  v  0.000175741559329  -0.000300735509369  -0.000176184913892
6.65527440393  4.3240752345  2.16631587246  m  1  1  1  v  -5.67842003797e-05  8.96932710186e-05  0.000190075306507
6.61326851544  4.38398057769  6.55971048899  m  1  1  1  v  2.18733220664e-05  -9.46672551573e-05  0.000108798041542
2.18018347165  2.36971047606  8.89380039188  m  1  1  1  v  -0.000287190747452  -4.1020155656e-05  -0.000378965728155
2.23753630252  2.21917212064  4.36595221315  m  1  1  1  v  0.000216366603561  -0.000163414280691  -2.87456070812e-05
2.24094798316  6.75150982006  8.84643292926  m  1  1  1  v  -6.03052619902e-05  -5.25182812474e-05  -0.000192385433584
2.2785388065  6.59338582456  4.30323146606  m  1  1  1  v  -0.000183206963498  0.000233166211531  -2.381895318e-06
6.56944497097  2.28164800547  8.92737024908  m  1  1  1  v  9.17609578236e-05  -2.49585214833e-05  -4.87297011456e-05
6.59369736624  2.14832994227  4.37641455692  m  1  1  1  v  -0.000203983309184  5.83252519646e-06  0.000252006979276
6.61808576327  6.68886562714  8.88448109847  m  1  1  1  v  -0.000136518232215  7.13944541744e-05  -7.17787809036e-05
6.67293769678  6.55564561368  4.34792860387  m  1  1  1  v  4.45485779398e-05  0.000287754832418  -0.000285755209867
