ATOMIC_SPECIES
Si 28.085 Si_ONCV_PBE-1.0.upf
C 12.011 C_ONCV_PBE-1.0.upf

LATTICE_CONSTANT
1.8897261254578281

LATTICE_VECTORS
8.622585309815744 0.0 0.0 
-0.23135622047436472 8.619223417112199 0.0 
0.19925191068019543 -0.021481738696676106 8.929837671376994 

ATOMIC_POSITIONS
Cartesian    # Cartesian(Unit is LATTICE_CONSTANT)
Si
0.0
32
3.282738535633 1.125368885770 3.230739934619 1 1 1
3.327962552876 1.126892208731 7.571086542449 1 1 1
3.228846456120 5.477907781737 3.240296039149 1 1 1
3.268460756096 5.460711411294 7.582768450997 1 1 1
7.636722364017 1.189720830397 3.184123138080 1 1 1
7.681743834963 1.189538235644 7.529960134061 1 1 1
7.571437080065 5.530263755634 3.191797176333 1 1 1
7.627926589174 5.531004203878 7.533992573660 1 1 1
3.236107722736 3.317143702798 1.046514450267 1 1 1
3.281637600381 3.304563786373 5.402470691899 1 1 1
3.170966763030 7.643458875610 1.067821038765 1 1 1
3.216522478096 7.650312543694 5.399550870343 1 1 1
7.579411375630 3.349463016349 1.001544093537 1 1 1
7.629698556275 3.355954525176 5.351677921711 1 1 1
7.537367486897 7.712466253850 1.004962380008 1 1 1
7.563252241444 7.686380198846 5.357914210700 1 1 1
1.077229329852 1.104889634168 1.070231104167 1 1 1
1.133581066942 1.091454922252 5.440020450285 1 1 1
1.020365518104 5.457230856415 1.079438187966 1 1 1
1.079940475306 5.446356842363 5.433595695204 1 1 1
5.425487223794 1.168566374249 1.035809203284 1 1 1
5.484479086557 1.162366575986 5.371782457493 1 1 1
5.389266965505 5.492226012020 1.033035919298 1 1 1
5.414947757141 5.502147259259 5.392051946546 1 1 1
1.080794860939 3.269095320225 3.251512792342 1 1 1
1.125093112317 3.277906905438 7.612025141116 1 1 1
1.027004208968 7.625955209646 3.251283815711 1 1 1
1.066551465232 7.601304939198 7.614090825377 1 1 1
5.432280858059 3.321745026740 3.198530488576 1 1 1
5.482063099128 3.327072379720 7.550750599677 1 1 1
5.370333476308 7.674543780545 3.198054716772 1 1 1
5.411838086639 7.678433063996 7.563416241280 1 1 1
C
0.0
32
8.700836345381 0.111433495033 -0.087289637865 1 1 1
8.740845726268 0.107718378965 4.244828119884 1 1 1
8.647592537404 4.449356886203 -0.096240106152 1 1 1
8.691636698129 4.454334732947 4.268898429093 1 1 1
4.361839886426 0.060983315936 -0.055125697699 1 1 1
4.411593789090 0.035149267942 4.303755212140 1 1 1
4.292260841015 4.395472100306 -0.041874983038 1 1 1
4.324300982665 4.401241071505 4.299621440034 1 1 1
8.677614251934 2.301673729959 2.080914895853 1 1 1
8.734629778573 2.286072351860 6.439827117746 1 1 1
8.629200071503 6.633689965821 2.074234137792 1 1 1
8.681478496936 6.636460883385 6.432331830144 1 1 1
4.358381672255 2.237570328983 2.141681490547 1 1 1
4.398755920871 2.218074183337 6.477551325568 1 1 1
4.294353421474 6.572337011343 2.118044735976 1 1 1
4.325354666592 6.572679566013 6.479654943313 1 1 1
2.197799868218 0.025105432122 2.154644581332 1 1 1
2.241537589229 0.017283612646 6.510451524233 1 1 1
2.143758411264 4.365086942682 2.157585670542 1 1 1
2.182199981068 4.364874288008 6.501722446612 1 1 1
6.537168704410 0.090128259271 2.099643989714 1 1 1
6.609270231742 0.069300849334 6.452715229759 1 1 1
6.492360823684 4.434043982852 2.110649860015 1 1 1
6.540588357755 4.428315626535 6.454522984477 1 1 1
2.145716303066 2.195546005487 -0.017287719797 1 1 1
2.186102242062 2.189661097354 4.328354691182 1 1 1
2.087473969461 6.548612143967 -0.009499251505 1 1 1
2.123358609786 6.544528348458 4.332451991590 1 1 1
6.494774192369 2.260474406885 -0.069110537414 1 1 1
6.542016162082 2.254843224899 4.267941324076 1 1 1
6.434166161448 6.605307591073 -0.058794844126 1 1 1
6.495890244220 6.596583699497 4.283625520816 1 1 1

NUMERICAL_ORBITAL
Si_gga_9au_100Ry_3s3p2d.orb
C_gga_9au_100Ry_3s3p2d.orb
