ATOMIC_SPECIES
Si 28.085 Si_ONCV_PBE-1.0.upf
C 12.011 C_ONCV_PBE-1.0.upf

LATTICE_CONSTANT
1.8897261254578281

LATTICE_VECTORS
9.172065582485315 0.0 0.0 
-4.7552269594015195 8.185174410476053 0.0 
-0.25838859707167394 -0.2058335089226239 10.559633441516114 

ATOMIC_POSITIONS
Cartesian    # Cartesian(Unit is LATTICE_CONSTANT)
Si
0.0
36
-0.038818143915 1.789203842272 2.576645331819 1 1 1
3.025167325259 7.225949780258 2.658063263841 1 1 1
-3.236619464310 7.181034596608 2.592228459948 1 1 1
4.570706741894 6.328504883393 5.260324595971 1 1 1
1.499648070908 0.868619846284 5.160079986298 1 1 1
7.764986547058 0.944981944983 5.261594384790 1 1 1
-0.117722131467 1.750636056162 7.721146662398 1 1 1
2.947074192747 7.174908482552 7.826370288495 1 1 1
-3.289906851035 7.127553576565 7.732315366005 1 1 1
4.489195541410 6.272664585417 10.401211374068 1 1 1
1.418431380454 0.808757579050 10.306564602185 1 1 1
7.686231284817 0.870570098631 10.382048777907 1 1 1
-1.642056044677 4.480014000294 2.598190515769 1 1 1
1.496160066161 4.514277566875 2.629824129679 1 1 1
-0.106010374083 7.201244850462 2.632203230763 1 1 1
6.156815085136 3.628811099988 5.252882798177 1 1 1
3.006931900093 3.592480795800 5.222751561505 1 1 1
4.607010716704 0.908563717183 5.193329776374 1 1 1
-1.704927803513 4.412665938284 7.712594188616 1 1 1
1.400429396260 4.467180167963 7.758562872017 1 1 1
-0.168351937788 7.153830657595 7.775157489440 1 1 1
6.096971838776 3.588769515035 10.377590662303 1 1 1
2.956116401104 3.542558903240 10.350639668404 1 1 1
4.554540626348 0.854925468988 10.347232705017 1 1 1
3.075705304326 1.814446216272 2.628914883509 1 1 1
6.209845320534 1.847414354643 2.670641298821 1 1 1
4.623139580087 4.552904441440 2.667740413685 1 1 1
1.423742673734 6.277520827700 5.217081964686 1 1 1
-1.692303064356 6.246508575791 5.187676612203 1 1 1
-0.099550033299 3.561463108638 5.159131819388 1 1 1
3.012516964550 1.770050944725 7.764427040467 1 1 1
6.156289350589 1.809685526900 7.813264220673 1 1 1
4.550672534796 4.497680608774 7.821393431778 1 1 1
1.362608018106 6.214836926267 10.372388119061 1 1 1
-1.764430190991 6.202762448267 10.303848541671 1 1 1
-0.185033122434 3.495109352099 10.307514419159 1 1 1
C
0.0
36
-0.081939603415 1.763108171186 4.504534436749 1 1 1
2.995454969239 7.218103453090 4.601413927523 1 1 1
-3.268833598093 7.144247553386 4.529617611322 1 1 1
4.544247468810 6.301587324878 7.192936055786 1 1 1
1.460748995893 0.840881192592 7.096042660633 1 1 1
7.721572623967 0.915662346734 7.169028339835 1 1 1
-0.164035666697 1.731162762277 9.646357996169 1 1 1
2.951543283492 7.166016590429 9.734654126123 1 1 1
-3.349655197045 7.114949107912 9.685447314100 1 1 1
4.618085427566 6.373161164354 2.046778675658 1 1 1
1.532236188287 0.898615228883 1.964025199654 1 1 1
7.803566459461 0.964839711734 2.024574696708 1 1 1
-1.668554778164 4.458109705250 4.525582751294 1 1 1
1.469220024151 4.464254383985 4.559717426599 1 1 1
-0.123762951973 7.181367560110 4.575242550116 1 1 1
6.134805054904 3.611954657695 7.181716411395 1 1 1
3.002043868692 3.579611243036 7.138931917347 1 1 1
4.588195164106 0.889189358280 7.146557954427 1 1 1
-1.749180650637 4.417511013859 9.645412082460 1 1 1
1.392913021527 4.445056520779 9.691587217085 1 1 1
-0.184456036271 7.120939375271 9.720162135281 1 1 1
6.201353568323 3.669772733168 2.039754392590 1 1 1
3.076169923986 3.644687370859 2.008362288639 1 1 1
4.670706531610 0.937463644595 2.016609622816 1 1 1
3.046060358713 1.787198009734 4.552805256314 1 1 1
6.168111681632 1.814109078253 4.601167971707 1 1 1
4.591583474735 4.524228477551 4.607739554864 1 1 1
1.394804353992 6.262309291234 7.129468831431 1 1 1
-1.728762223300 6.243199936493 7.111048434615 1 1 1
-0.127478361129 3.538961703788 7.104386939873 1 1 1
2.978247064068 1.738630136521 9.702067055164 1 1 1
6.120278563742 1.776253508434 9.724432803789 1 1 1
4.514204238039 4.467984099075 9.747142355972 1 1 1
1.498444130941 6.322744604774 2.021579473677 1 1 1
-1.659733604238 6.295098520058 1.958262952154 1 1 1
-0.057412735209 3.608769377422 1.964589632097 1 1 1

NUMERICAL_ORBITAL
Si_gga_9au_100Ry_3s3p2d.orb
C_gga_9au_100Ry_3s3p2d.orb
