ATOMIC_SPECIES
Si 28.085 Si_ONCV_PBE-1.0.upf upf201
C 12.011 C_ONCV_PBE-1.0.upf upf201

NUMERICAL_ORBITAL
Si_gga_9au_100Ry_3s3p2d.orb
C_gga_9au_100Ry_3s3p2d.orb

LATTICE_CONSTANT
1.88972612546

LATTICE_VECTORS
8.7529782127 0 0 #latvec1
0.233563809814 8.92920114988 0 #latvec2
-0.186930847989 -0.0042381194807 8.85331703007 #latvec3

ATOMIC_POSITIONS
Cartesian

Si #label
0 #magnetism
32 #number of atoms
3.2778053164  1.04165993765  3.32764735906  m  1  1  1  v  3.58910199744e-05  -7.99155928498e-05  9.81561966964e-06
3.22976939111  1.06517079119  7.7098431076  m  1  1  1  v  -4.47390809463e-05  0.000102089257066  8.34012896081e-05
3.32209853746  5.441587808  3.33309476196  m  1  1  1  v  8.24756512242e-05  -0.000102374756464  5.09552844918e-05
3.28255079793  5.45272421962  7.73236764043  m  1  1  1  v  -0.000180787412147  6.84949643753e-05  5.22880069232e-05
7.66086456736  0.997383803581  3.36584416665  m  1  1  1  v  -6.28168871832e-05  -4.4276420272e-05  5.04509892137e-06
7.62210877796  0.994291117722  7.77949023158  m  1  1  1  v  4.21056313051e-05  -3.96925644523e-05  5.82520705731e-05
7.7074180368  5.39281129952  3.39663019797  m  1  1  1  v  -9.92730528646e-05  -7.92781339846e-05  0.000110345940952
7.68596496249  5.39015773946  7.74144245955  m  1  1  1  v  0.000189697915557  0.000112544989159  -0.000115091343484
3.31985764512  3.23569743679  1.15783918542  m  1  1  1  v  -0.000164497162453  -0.000170574030832  -3.86541755386e-05
3.28246064664  3.26404719861  5.52980826903  m  1  1  1  v  -4.29705477768e-06  -5.4636544488e-05  4.95555774611e-06
3.38807015187  7.65215225668  1.13762277625  m  1  1  1  v  -0.000123876727252  6.85248533003e-06  0.000159103324006
3.34889085998  7.65126828431  5.50859069684  m  1  1  1  v  0.000102558280346  -1.14450777774e-05  4.81330535104e-05
7.70789182658  3.19733773562  1.16892037963  m  1  1  1  v  -6.42348720249e-05  1.94591268371e-05  -6.24385005214e-05
7.66582020341  3.18070637989  5.57306213201  m  1  1  1  v  -2.55577212747e-05  8.2096159391e-05  1.9513201005e-05
7.77064193152  7.59059729215  1.18795504054  m  1  1  1  v  3.43854026163e-05  3.73229195512e-05  -1.35668298378e-05
7.74476568339  7.58596768557  5.59724360282  m  1  1  1  v  2.12678327531e-05  0.000111876424076  -6.48635231483e-05
1.10596063215  1.08974248176  1.10464982391  m  1  1  1  v  7.92287613932e-05  0.000189869029267  0.000111420445356
1.05783737225  1.09638118905  5.51222828778  m  1  1  1  v  -3.36594941873e-05  0.000163480176576  -1.06791910867e-05
1.16667630121  5.48086624385  1.12087625803  m  1  1  1  v  -0.000183946747714  -8.56661586397e-06  4.66273713314e-05
1.1210939722  5.470151824  5.51611680019  m  1  1  1  v  -0.00019407405272  -1.44944082756e-06  -1.38970047552e-05
5.47673412713  1.00998047314  1.15197838745  m  1  1  1  v  4.1342939271e-05  -0.000117574794906  -2.03561687666e-05
5.45600482593  1.03173376472  5.54034929891  m  1  1  1  v  -2.66750001324e-05  -4.06960266219e-05  -6.31378883977e-05
5.53579104289  5.4033755099  1.14579610401  m  1  1  1  v  1.93154614964e-05  -8.56958061612e-05  -5.3104461884e-05
5.51785430394  5.44666025706  5.54765545446  m  1  1  1  v  -4.56461121391e-05  0.000108198757014  4.1342263795e-05
1.10447397204  3.27888247837  3.30806537348  m  1  1  1  v  -2.55884312538e-05  0.000142249047954  4.5754171631e-05
1.06807706681  3.30179732087  7.71238338823  m  1  1  1  v  -5.40839850169e-05  -7.38511023005e-05  -9.31462134446e-05
1.16317610108  7.6789272284  3.29839292006  m  1  1  1  v  -7.12963177683e-05  1.69655411533e-05  -0.00012516104458
1.14155931898  7.6670138134  7.69712445007  m  1  1  1  v  8.99256119832e-06  2.54841087604e-06  8.5382575562e-05
5.49925668226  3.20584251438  3.35411551472  m  1  1  1  v  5.49875583101e-06  1.94249236929e-05  -0.000156670866207
5.45130227056  3.21665076766  7.72791848847  m  1  1  1  v  5.42865872582e-05  4.82538860629e-05  -0.000105702173321
5.55540748249  7.6205575444  3.34177188635  m  1  1  1  v  8.12245856744e-05  0.000100077937197  -1.21700657582e-05
5.50190657485  7.61202098324  7.74668950444  m  1  1  1  v  4.42822036364e-05  -0.000149217295405  -3.89522225136e-05

C #label
0 #magnetism
32 #number of atoms
0.272973135046  8.83479148488  0.0915943718265  m  1  1  1  v  -4.38880703754e-05  3.15903445893e-05  0.000108856331191
0.207459719543  8.82346585195  4.47777671018  m  1  1  1  v  0.000213215765411  8.68679550862e-06  -2.33426935384e-05
8.84414324011  4.27251530527  0.0953323489719  m  1  1  1  v  -2.44777893047e-05  1.81348294395e-05  -0.000190622989552
0.0296516890929  4.28810743089  4.4866620147  m  1  1  1  v  2.56398622648e-05  -5.23929980252e-05  0.000119178077687
4.62979933175  8.87146094813  0.034650607103  m  1  1  1  v  -0.00016500121131  8.17209595378e-05  0.000125666285517
4.59598090391  8.87702623163  4.45459152611  m  1  1  1  v  -4.14960025592e-05  -0.000257861026578  8.53303347611e-05
4.45512523673  4.32978740266  0.0450758190607  m  1  1  1  v  -0.000235016699281  -0.000177729186101  -0.000258622907748
4.40633420854  4.32693500569  4.44898845612  m  1  1  1  v  -0.000129744004591  0.000303313162243  0.000185488455853
0.0347224234566  2.08963605377  2.30112323555  m  1  1  1  v  4.40635823704e-06  6.14330623996e-05  -7.79341470274e-05
-0.0117377681146  2.0819647818  6.69395876112  m  1  1  1  v  -3.49011669435e-05  0.000151685317821  7.48388293708e-06
8.82098371327  6.4551856585  2.28401115548  m  1  1  1  v  -7.5808665894e-05  0.000118715930028  0.000122733256905
0.066953624402  6.46772970241  6.66338221854  m  1  1  1  v  2.87137121874e-05  -9.36497247281e-07  0.000161557590414
4.37759556635  2.12424494232  2.24027076969  m  1  1  1  v  5.38583111063e-05  -9.33044516515e-05  0.000156292280314
4.36696832054  2.1591165285  6.61680368943  m  1  1  1  v  -0.000130154488157  -9.55894463334e-05  -0.000268359325515
4.46369141191  6.51560631304  2.23480306225  m  1  1  1  v  2.08047595068e-05  -0.000203390159434  0.000226903983448
4.39765063109  6.5377360477  6.63792595169  m  1  1  1  v  -0.000174336453165  -0.000200512558321  -0.000331091301311
2.41208102188  8.89591080268  2.22534692683  m  1  1  1  v  -0.000100386181181  -0.0001640728142  -0.00014668914144
2.33490315083  8.91024240869  6.61966036693  m  1  1  1  v  4.28406205706e-05  3.92877582952e-05  -0.000216357351611
2.21811104686  4.35047706623  2.22663902145  m  1  1  1  v  -9.51803804779e-05  -0.000213965000718  0.00017150067768
2.20832691707  4.3649561831  6.60096680755  m  1  1  1  v  -0.000187521372525  0.000112792049528  -4.96581404125e-05
6.79898759061  8.85553134638  2.27099706742  m  1  1  1  v  -0.000166314725463  -5.30821179695e-05  -2.39607925299e-05
6.75262417912  8.82594658246  6.65229206573  m  1  1  1  v  -4.94218011304e-05  2.89165850712e-05  -2.67927841199e-05
6.63132929636  4.28416609091  2.24896451692  m  1  1  1  v  0.000136326833671  0.000116579759592  -0.000109889705059
6.56934086919  4.29570175624  6.66431920508  m  1  1  1  v  -4.65838579789e-05  0.000349804713176  0.000129368594867
2.22089278065  2.16566281118  0.0109294242425  m  1  1  1  v  6.60697888837e-05  1.91584044622e-06  -8.35790071127e-05
2.18526347129  2.1708426301  4.40606640125  m  1  1  1  v  -0.000106786458171  -0.000193680716633  9.16810348279e-05
2.2941753615  6.55304322891  0.027927869687  m  1  1  1  v  -5.67113737586e-05  8.48261439644e-05  -7.10771912103e-05
2.23885044501  6.5467742965  4.40581804258  m  1  1  1  v  0.000120181570377  0.000135555054734  8.72430931227e-05
6.60930631807  2.1101331188  0.0738665464672  m  1  1  1  v  -8.82838603674e-05  -1.14072416565e-05  0.000163648173728
6.5631798434  2.0983591905  4.45913385197  m  1  1  1  v  7.78230173338e-05  -0.000152209977595  -4.86535501277e-05
6.67806089729  6.50773232676  0.083438087242  m  1  1  1  v  8.96546301906e-06  5.41357900644e-05  -9.93049190053e-05
6.64123395442  6.51674124085  4.46096881051  m  1  1  1  v  -2.57489492243e-05  6.31893578973e-05  3.54174571302e-05
