ATOMIC_SPECIES
Si 28.085 Si_ONCV_PBE-1.0.upf upf201
C 12.011 C_ONCV_PBE-1.0.upf upf201

NUMERICAL_ORBITAL
Si_gga_9au_100Ry_3s3p2d.orb
C_gga_9au_100Ry_3s3p2d.orb

LATTICE_CONSTANT
1.88972612546

LATTICE_VECTORS
8.7529782127 0 0 #latvec1
0.233563809814 8.92920114988 0 #latvec2
-0.186930847989 -0.0042381194807 8.85331703007 #latvec3

ATOMIC_POSITIONS
Cartesian

Si #label
0 #magnetism
32 #number of atoms
3.28150175997  1.04703618803  3.32582207075  m  1  1  1  v  2.01770079589e-05  -6.57608105145e-06  1.39095932127e-05
3.22759598398  1.0592700851  7.70679056538  m  1  1  1  v  8.30615591861e-06  -1.58144801691e-05  2.77912654796e-05
3.32806169934  5.44617972607  3.33290395442  m  1  1  1  v  -5.11394045277e-05  1.26380563744e-05  -1.14840056858e-05
3.29160634409  5.45050729316  7.72555487477  m  1  1  1  v  4.96141886441e-05  -5.51006930217e-05  4.26432159899e-06
7.66344971194  0.990535951143  3.37513458356  m  1  1  1  v  1.3981931597e-05  3.70634720726e-05  -2.74168264091e-05
7.62231629068  1.00130936656  7.78421572657  m  1  1  1  v  -7.73241070022e-08  -6.90050982369e-06  6.15865379865e-06
7.71054497186  5.39157303215  3.39424766202  m  1  1  1  v  -3.58965021797e-05  -5.97242840941e-06  -2.11758762705e-07
7.68232830928  5.37907026165  7.74463716565  m  1  1  1  v  2.34993472503e-05  2.34035127965e-05  -3.99428281672e-05
3.33020074571  3.24595712716  1.15326188396  m  1  1  1  v  4.81841960591e-05  1.20144715974e-05  -1.56858076568e-06
3.2793255662  3.26544050236  5.53941092551  m  1  1  1  v  4.06927322086e-06  -1.6765463499e-05  2.32956136015e-05
3.39158561597  7.65252610002  1.13653930042  m  1  1  1  v  -3.95542596574e-06  4.13295679698e-05  -7.14952199395e-06
3.34427637784  7.65256235676  5.51071654976  m  1  1  1  v  1.46951061928e-05  -3.1339250761e-05  -2.41910611794e-05
7.71056329908  3.19725866919  1.16469625765  m  1  1  1  v  -6.47526364639e-06  -1.96149755154e-05  -2.81589208966e-05
7.66765013005  3.1794144966  5.57634456182  m  1  1  1  v  6.34691779131e-06  2.19435895493e-05  -9.08215779425e-06
7.76671046649  7.58881097112  1.19124941077  m  1  1  1  v  -9.59226192736e-06  -1.59733164086e-05  -4.43537373568e-05
7.73456456612  7.58293331958  5.59584666948  m  1  1  1  v  -5.22182108639e-07  -1.40244338753e-05  3.22663412498e-05
1.10376108392  1.08448219326  1.09884084333  m  1  1  1  v  -3.92118564325e-06  5.45610148414e-05  -4.34923931481e-07
1.06198955566  1.08956567275  5.50530065261  m  1  1  1  v  -2.20090657927e-05  -5.3545044529e-07  1.69975370252e-05
1.16825505503  5.48210481535  1.11422377335  m  1  1  1  v  2.00978039164e-07  6.24659718675e-06  -2.38537202989e-05
1.12525487843  5.46290884929  5.50966557233  m  1  1  1  v  1.69819284491e-05  3.52999992801e-05  -3.60001398044e-05
5.47478224688  1.01814254492  1.1575917764  m  1  1  1  v  4.89594820294e-06  -2.0523317423e-05  -5.42088695133e-06
5.45487166537  1.0256076053  5.5400364778  m  1  1  1  v  1.76307795907e-05  2.66566218539e-05  -1.40513262844e-05
5.53498786272  5.4096731719  1.14598653822  m  1  1  1  v  -1.39452949617e-05  1.09830283351e-05  -2.84603737904e-05
5.52434696473  5.44149607933  5.55519206632  m  1  1  1  v  2.5907775622e-05  1.544598437e-05  1.18033720827e-06
1.10233048312  3.2801460095  3.29995916396  m  1  1  1  v  2.15920527027e-06  2.49228455946e-05  -4.20510260939e-06
1.06699944419  3.30145856852  7.70323202597  m  1  1  1  v  1.17880211309e-05  -7.82244256971e-06  2.94142589223e-05
1.16823579293  7.67294129542  3.29499398705  m  1  1  1  v  -1.17780439914e-06  1.69858240707e-05  -3.73185656953e-06
1.13455375848  7.67141847391  7.69946303108  m  1  1  1  v  -4.55736898023e-05  5.10088508439e-05  -2.49860542668e-05
5.49420290758  3.20637552812  3.35267457245  m  1  1  1  v  1.22971176603e-05  -3.47424892603e-05  2.40722837765e-05
5.44997811225  3.21289639868  7.73111818272  m  1  1  1  v  -2.49934501961e-05  -5.18425507666e-06  -3.9190123572e-05
5.5518533479  7.61043489638  3.3430302008  m  1  1  1  v  -2.88503001617e-05  -1.29233618409e-05  3.42987239032e-05
5.50430873945  7.60775224292  7.74581690855  m  1  1  1  v  -6.06606577587e-05  1.41101308693e-06  3.926419669e-05

C #label
0 #magnetism
32 #number of atoms
0.278430144206  8.83373479839  0.0944053190415  m  1  1  1  v  5.14033805791e-05  -3.53975179349e-05  5.01615598597e-05
0.213588975524  8.8203057855  4.47999005746  m  1  1  1  v  -3.49564946104e-05  -2.72899728935e-05  -3.96639917282e-05
8.85536831477  4.2694325644  0.103828457698  m  1  1  1  v  1.11855563644e-05  -5.54331374466e-05  -2.85202011965e-05
0.0435675286954  4.28466607055  4.48515427151  m  1  1  1  v  1.02670149018e-05  -1.13812066724e-05  9.17421495083e-06
4.6349695048  8.87184822706  0.0376193063796  m  1  1  1  v  -3.4564990281e-05  2.16206945678e-05  -2.69083881351e-05
4.59560308947  8.87839622589  4.44532520521  m  1  1  1  v  -6.61145009469e-06  -2.37718539561e-05  -2.21947894974e-05
4.4645127482  4.33395157662  0.0528132175626  m  1  1  1  v  2.42805038455e-05  2.72167701778e-05  1.51302756405e-06
4.40551689923  4.318257326  4.4552730573  m  1  1  1  v  8.7689095425e-07  2.86096704786e-05  4.79244357726e-05
0.0381870206553  2.08292985836  2.29746720777  m  1  1  1  v  -6.32455245672e-06  -2.95111270991e-05  -7.52984863861e-06
-0.00936782933296  2.07765827865  6.68828429114  m  1  1  1  v  4.28953101311e-05  1.90035897295e-05  5.74391270615e-05
8.82668493296  6.45113695622  2.28799840974  m  1  1  1  v  5.99544140987e-06  -4.4977418739e-05  -4.45290602256e-05
0.0630618887234  6.46966439883  6.66782608213  m  1  1  1  v  -2.17049546518e-05  -7.70098582005e-05  2.80687337577e-05
4.3826114066  2.11892472366  2.23520551459  m  1  1  1  v  7.8077306335e-05  -4.91752671965e-05  1.00554887098e-05
4.36741673318  2.14342349016  6.6236566863  m  1  1  1  v  -3.2330219295e-05  9.54760314657e-06  6.06049947329e-05
4.47231162755  6.5254792896  2.24393487263  m  1  1  1  v  1.09070153235e-08  4.06399991487e-05  5.07395758176e-05
4.39589182642  6.53514979339  6.64685641446  m  1  1  1  v  1.92861628598e-05  4.80724403036e-06  9.74149433452e-07
2.41993972541  8.89919402784  2.23449778887  m  1  1  1  v  7.28418113835e-05  7.96953246256e-07  -1.48459162896e-05
2.34256065307  8.90838979092  6.61534897303  m  1  1  1  v  5.35786845957e-06  3.08828604155e-05  -4.98106218971e-05
2.22190881966  4.35503169615  2.22428412555  m  1  1  1  v  1.5888781866e-05  -4.7517400958e-05  4.30355136038e-05
2.19704048157  4.36167772669  6.6070522356  m  1  1  1  v  -4.84089564358e-05  -2.56876038298e-05  -4.50283348848e-05
6.80582528182  8.85312776748  2.2572595282  m  1  1  1  v  -3.26623807208e-05  9.87912378403e-06  -4.73535894507e-05
6.74444271414  8.84094962676  6.6546065825  m  1  1  1  v  1.72878384077e-05  2.54460938929e-06  1.72216041491e-05
6.61819337979  4.2881251859  2.25612211385  m  1  1  1  v  -7.52639675946e-05  1.62555048001e-05  1.16192960044e-05
6.5747070024  4.28210283623  6.66598724869  m  1  1  1  v  -3.08144377278e-05  -2.69444770293e-05  9.29187560716e-05
2.21337836264  2.1714035536  0.0172257929631  m  1  1  1  v  1.77852848625e-05  -7.08398904615e-07  -1.82397431004e-05
2.18249540335  2.16681711626  4.4162114516  m  1  1  1  v  2.79222341792e-05  -6.29508099695e-05  3.99229741533e-05
2.29580698907  6.5509212937  0.0222407103859  m  1  1  1  v  1.61708984036e-05  -1.70515722088e-05  7.68769641182e-05
2.23836631621  6.5461126905  4.40366172877  m  1  1  1  v  -1.54466266158e-05  -4.75494084166e-06  -7.56634806296e-05
6.6108927144  2.10340229675  0.0716098987711  m  1  1  1  v  1.4387864644e-05  -3.11479706246e-05  3.06544237109e-06
6.56692636597  2.10015460264  4.46495498768  m  1  1  1  v  -2.4696192286e-05  -2.63961180814e-05  6.35710686503e-05
6.6854658891  6.49850091885  0.082446688399  m  1  1  1  v  4.6622299377e-05  4.52199978439e-05  -2.14374462784e-05
6.62865933887  6.51209211549  4.46852137981  m  1  1  1  v  -4.9160368437e-05  5.45753590777e-05  5.97246082081e-05
