ATOMIC_SPECIES
Si 28.085 Si_ONCV_PBE-1.0.upf upf201
C 12.011 C_ONCV_PBE-1.0.upf upf201

NUMERICAL_ORBITAL
Si_gga_9au_100Ry_3s3p2d.orb
C_gga_9au_100Ry_3s3p2d.orb

LATTICE_CONSTANT
1.88972612546

LATTICE_VECTORS
8.94454378685 0 0 #latvec1
-0.187709245416 8.68662906424 0 #latvec2
0.117074966411 0.172491768648 8.69213046465 #latvec3

ATOMIC_POSITIONS
Cartesian

Si #label
0 #magnetism
32 #number of atoms
3.31431706394  1.16108101633  3.27433239655  m  1  1  1  v  -0.000160674741475  -3.99540230857e-05  0.000122576282508
3.32446486038  1.2325310626  7.62981211779  m  1  1  1  v  -2.61761254372e-05  6.76675470733e-05  -0.000221378973446
3.26024313266  5.54982337403  3.20927553779  m  1  1  1  v  0.000241997812452  -3.14506275243e-05  -0.000232730676547
3.27903137929  5.61578218959  7.6045920716  m  1  1  1  v  -0.000190322980079  -5.94386588203e-05  -7.67292605936e-06
7.68486673213  1.21680619393  3.22162407117  m  1  1  1  v  2.79722306934e-05  6.96835867629e-05  -5.75916783956e-05
7.72518875121  1.26248438333  7.63809692241  m  1  1  1  v  0.000174387952985  -0.00023306426888  3.35200046071e-05
7.62660183484  5.59373959536  3.20710475195  m  1  1  1  v  0.000162372375338  -0.00017243699303  -0.000181446662358
7.69872617002  5.65559313016  7.52611941974  m  1  1  1  v  0.000158552736336  0.000153009829229  -7.40384480648e-05
3.25567899298  3.33366834968  1.07282163373  m  1  1  1  v  -0.000240758309745  0.000203824420986  0.000144757441366
3.29335186788  3.39123098083  5.44932801221  m  1  1  1  v  5.35848409186e-05  -0.000154650330026  0.000160803128154
3.21094617824  7.7307825913  1.01854253371  m  1  1  1  v  0.000118420887899  -1.30785108592e-05  -0.000176843508122
3.26822505149  7.78091536674  5.38763875447  m  1  1  1  v  -0.000102017450967  -4.02150921152e-05  0.00020090831605
7.64433551038  3.40105119208  0.982852583372  m  1  1  1  v  7.55720773062e-05  -0.000107673188502  -0.000162023420661
7.68135794549  3.41511162918  5.41298640673  m  1  1  1  v  0.000163405496814  3.82957670723e-05  8.20804168813e-05
7.58301737992  7.75287677546  0.995301843342  m  1  1  1  v  -0.000154479814933  -0.000302793362794  0.000153230753457
7.65796065368  7.82307696699  5.3908072169  m  1  1  1  v  9.92451685696e-05  0.000171297922  -0.000100947063914
1.1051846667  1.14324649552  1.07852090844  m  1  1  1  v  0.000123023322065  1.55483435036e-05  4.76151503339e-05
1.10301332257  1.19302195027  5.47696332182  m  1  1  1  v  -3.95553576258e-05  0.00016147900707  -0.000148185503275
1.02276728217  5.51705044346  1.04559922139  m  1  1  1  v  -0.000122934903852  -7.96227868043e-05  7.11014390372e-05
1.08011148991  5.55016231763  5.43042062052  m  1  1  1  v  1.67286938024e-05  -3.16620154315e-05  -0.000101632250874
5.47287445866  1.16408236412  1.05936335499  m  1  1  1  v  -0.000106085620098  0.000105851320224  0.000251540196825
5.53598405202  1.21149868589  5.41473587605  m  1  1  1  v  1.91627003663e-05  4.48041394484e-05  -8.28560939817e-05
5.42106534334  5.54543807044  0.987222675121  m  1  1  1  v  0.000211749076422  9.22873505433e-05  -0.00018166033582
5.48470648276  5.64693270398  5.40191278062  m  1  1  1  v  1.1075644068e-05  -0.000100711159418  0.000163765457485
1.06437969566  3.35065544775  3.246355813  m  1  1  1  v  -0.000250694094441  7.95458216104e-05  0.000205762851859
1.11219024595  3.39998017569  7.64417653999  m  1  1  1  v  -0.000121920436478  -0.000124726997913  4.00529190002e-05
1.01300211301  7.73512583605  3.19253722911  m  1  1  1  v  -0.000245907250354  -8.76786365232e-06  9.4562053808e-05
1.08795738861  7.77458077888  7.59684713412  m  1  1  1  v  0.000120212739325  -5.35538626652e-06  -0.000114601908307
5.47989513358  3.36246807518  3.22358164997  m  1  1  1  v  4.51454912948e-05  -9.65526752485e-05  0.000127728609613
5.49567170605  3.42237287066  7.58942296948  m  1  1  1  v  -0.000206909079719  -4.70088293163e-05  7.67823208246e-05
5.42923526664  7.7728097089  3.1831210993  m  1  1  1  v  1.12716723016e-05  0.000139478222969  0.000202158982172
5.44323470088  7.80974027103  7.56044084496  m  1  1  1  v  -5.94753485274e-05  -0.000153818319672  -0.000100268570141

C #label
0 #magnetism
32 #number of atoms
8.95516942964  0.302884760599  8.63265244441  m  1  1  1  v  -0.000148790628439  5.0981929578e-05  -1.25592388484e-05
8.85632942118  0.163027459332  4.31617288121  m  1  1  1  v  6.43754839838e-05  0.000142720588366  -0.000184285987427
8.86553575398  4.65150004606  8.61070200803  m  1  1  1  v  -0.000211539246329  0.000248751854579  -1.68327519924e-06
8.80181984475  4.52043349336  4.29565472672  m  1  1  1  v  6.46513965699e-05  0.000133806815166  0.000275084848756
4.49770554309  0.248937120574  8.65407257482  m  1  1  1  v  0.00019595063411  0.000373638290127  0.00026691833001
4.44716496725  0.1145082792  4.35639968839  m  1  1  1  v  0.000295831928557  0.000174430152231  0.000196679308238
4.44725753827  4.61080187415  8.61794549747  m  1  1  1  v  6.45940788135e-05  -0.000333061278556  0.000154852692307
4.37073750413  4.46594746451  4.32025796085  m  1  1  1  v  -0.000222505773494  -9.63283031341e-05  1.96987902748e-05
8.77655113426  2.31507687194  2.12826288106  m  1  1  1  v  -4.7476529434e-05  -9.47612784626e-05  0.000256433329326
8.80614280324  2.35053778586  6.50465643484  m  1  1  1  v  0.000243557545334  -0.000152316591065  6.51919855812e-05
8.72791622292  6.67280193577  2.07116607189  m  1  1  1  v  5.59072859325e-05  0.000135437658736  -0.000346984696472
8.8079178804  6.74813807003  6.46839498726  m  1  1  1  v  2.99597781795e-05  -0.000392106364653  0.000261118492988
4.35372910016  2.23257199976  2.15308962235  m  1  1  1  v  -0.000133906522746  -0.000113557085388  3.03264091268e-05
4.41666553831  2.29273882789  6.47853788146  m  1  1  1  v  -0.000182022357121  -6.86602601655e-05  -0.000277225739886
4.33828985826  6.63006591188  2.10328576639  m  1  1  1  v  -0.000433632080835  6.8646343407e-05  4.17843471499e-05
4.34909760293  6.70390750861  6.49388661281  m  1  1  1  v  0.000362979036362  -0.000201652199638  0.000182732067671
2.23329971545  0.0481036457343  2.1921643664  m  1  1  1  v  0.000171720455419  0.000443050388917  0.000309259252272
2.233183496  0.147252696154  6.54682363406  m  1  1  1  v  -0.000201563845629  0.000163348649121  -0.000279212169248
2.13781390131  4.4314551486  2.17453390995  m  1  1  1  v  -0.000241415876577  4.93435191648e-05  0.000162468871975
2.20947431791  4.49057443229  6.50000806544  m  1  1  1  v  4.80101460642e-06  0.000222483794887  -0.000417348065538
6.62690561899  0.129749977068  2.13547234101  m  1  1  1  v  9.16335351914e-05  0.000260935989236  0.000160087277324
6.65981562555  0.141847200752  6.51386310991  m  1  1  1  v  0.000240322522938  -0.000214641731452  -0.000210020530397
6.55769849418  4.47052283849  2.10652814781  m  1  1  1  v  -6.22293710059e-05  8.42944548467e-05  0.000198497365272
6.56447780742  4.52311406956  6.51138309082  m  1  1  1  v  1.82612309261e-05  -9.11839157122e-05  8.92057493804e-05
2.27792435842  2.40313314801  8.63929879497  m  1  1  1  v  -0.000309546945588  -3.61617245838e-05  -0.000279221807252
2.2227722583  2.26190012968  4.35131700421  m  1  1  1  v  0.00020429201963  -0.000152565304847  -3.5545769088e-05
2.23792193711  6.77528488879  8.59732418334  m  1  1  1  v  -0.000101417949719  -4.58743973658e-05  -9.13132855798e-05
2.15445129006  6.64509619956  4.28072885828  m  1  1  1  v  -0.000208190354762  0.000226290100797  5.49005057953e-06
6.66497439634  2.4100597912  8.63709450554  m  1  1  1  v  6.82763396343e-05  -1.98670857096e-05  5.0381816587e-05
6.57856649733  2.30590845728  4.31849711185  m  1  1  1  v  -0.000205111977039  -8.16016825329e-06  0.000245482137409
6.61735993532  6.8199191713  8.60477725719  m  1  1  1  v  -0.000166915672249  4.45667847e-05  7.27925769705e-06
6.55923812506  6.70584322395  4.29723510275  m  1  1  1  v  2.18210232331e-05  0.000274333953569  -0.000284263432357
