ATOMIC_SPECIES
Si 28.085 Si_ONCV_PBE-1.0.upf upf201
C 12.011 C_ONCV_PBE-1.0.upf upf201

NUMERICAL_ORBITAL
Si_gga_9au_100Ry_3s3p2d.orb
C_gga_9au_100Ry_3s3p2d.orb

LATTICE_CONSTANT
1.88972612546

LATTICE_VECTORS
8.94454378685 0 0 #latvec1
-0.187709245416 8.68662906424 0 #latvec2
0.117074966411 0.172491768648 8.69213046465 #latvec3

ATOMIC_POSITIONS
Cartesian

Si #label
0 #magnetism
32 #number of atoms
3.313343573  1.15988145274  3.26251351927  m  1  1  1  v  2.01770079589e-05  -6.57608105145e-06  1.39095932127e-05
3.32734907145  1.21800308505  7.63656206811  m  1  1  1  v  8.30615591861e-06  -1.58144801691e-05  2.77912654796e-05
3.24940474337  5.56196231504  3.21366110212  m  1  1  1  v  -5.11394045277e-05  1.26380563744e-05  -1.14840056858e-05
3.29557125945  5.61076538012  7.6114879805  m  1  1  1  v  4.96141886441e-05  -5.51006930217e-05  4.26432159899e-06
7.69487459454  1.20712624099  3.23036213798  m  1  1  1  v  1.3981931597e-05  3.70634720726e-05  -2.74168264091e-05
7.72674712437  1.27026925836  7.64184304859  m  1  1  1  v  -7.73241070022e-08  -6.90050982369e-06  6.15865379865e-06
7.63122381963  5.60334842107  3.20747785198  m  1  1  1  v  -3.58965021797e-05  -5.97242840941e-06  -2.11758762705e-07
7.68742861003  5.63561747922  7.55050165485  m  1  1  1  v  2.34993472503e-05  2.34035127965e-05  -3.99428281672e-05
3.27174732579  3.33454152841  1.06356420191  m  1  1  1  v  4.81841960591e-05  1.20144715974e-05  -1.56858076568e-06
3.28998680604  3.39485841666  5.44541760059  m  1  1  1  v  4.06927322086e-06  -1.6765463499e-05  2.32956136015e-05
3.23204890995  7.74332980202  1.00166765255  m  1  1  1  v  -3.95542596574e-06  4.13295679698e-05  -7.14952199395e-06
3.25566922425  7.78597486892  5.37308595662  m  1  1  1  v  1.46951061928e-05  -3.1339250761e-05  -2.41910611794e-05
7.64849134722  3.39782199947  0.992691749694  m  1  1  1  v  -6.47526364639e-06  -1.96149755154e-05  -2.81589208966e-05
7.68162797039  3.41100213488  5.41202438517  m  1  1  1  v  6.34691779131e-06  2.19435895493e-05  -9.08215779425e-06
7.59777281162  7.77520258686  0.983345609251  m  1  1  1  v  -9.59226192736e-06  -1.59733164086e-05  -4.43537373568e-05
7.64681253432  7.81999530759  5.38190252152  m  1  1  1  v  -5.22182108639e-07  -1.40244338753e-05  3.22663412498e-05
1.09364283732  1.12601422406  1.07498558033  m  1  1  1  v  -3.92118564325e-06  5.45610148414e-05  -4.34923931481e-07
1.12987293627  1.17355787188  5.47220807823  m  1  1  1  v  -2.20090657927e-05  -5.3545044529e-07  1.69975370252e-05
1.05603328482  5.51949887624  1.03883811515  m  1  1  1  v  2.00978039164e-07  6.24659718675e-06  -2.38537202989e-05
1.09217826781  5.53870355311  5.43430043149  m  1  1  1  v  1.69819284491e-05  3.52999992801e-05  -3.60001398044e-05
5.46485103166  1.16470531642  1.05717013917  m  1  1  1  v  4.89594820294e-06  -2.0523317423e-05  -5.42088695133e-06
5.52338489242  1.21332445126  5.43190896482  m  1  1  1  v  1.76307795907e-05  2.66566218539e-05  -1.40513262844e-05
5.4171365095  5.54621384169  0.992243023785  m  1  1  1  v  -1.39452949617e-05  1.09830283351e-05  -2.84603737904e-05
5.48674284107  5.63461977802  5.39596817674  m  1  1  1  v  2.5907775622e-05  1.544598437e-05  1.18033720827e-06
1.08033895328  3.33920405323  3.2470774074  m  1  1  1  v  2.15920527027e-06  2.49228455946e-05  -4.20510260939e-06
1.12247755719  3.39977786046  7.64880298137  m  1  1  1  v  1.17880211309e-05  -7.82244256971e-06  2.94142589223e-05
1.04032537843  7.73018903022  3.19980789198  m  1  1  1  v  -1.17780439914e-06  1.69858240707e-05  -3.73185656953e-06
1.08483751304  7.77380088576  7.60343210768  m  1  1  1  v  -4.55736898023e-05  5.10088508439e-05  -2.49860542668e-05
5.4742541736  3.37061697822  3.22181279738  m  1  1  1  v  1.22971176603e-05  -3.47424892603e-05  2.40722837765e-05
5.50089404696  3.42174942746  7.60499468232  m  1  1  1  v  -2.49934501961e-05  -5.18425507666e-06  -3.9190123572e-05
5.42855359639  7.77612284561  3.17574820087  m  1  1  1  v  -2.88503001617e-05  -1.29233618409e-05  3.42987239032e-05
5.44598671816  7.81187978161  7.57187487306  m  1  1  1  v  -6.06606577587e-05  1.41101308693e-06  3.926419669e-05

C #label
0 #magnetism
32 #number of atoms
8.91499221142  0.286682918851  8.63319406642  m  1  1  1  v  5.14033805791e-05  -3.53975179349e-05  5.01615598597e-05
8.81287458995  0.144425138973  4.32558184842  m  1  1  1  v  -3.49564946104e-05  -2.72899728935e-05  -3.96639917282e-05
8.86972187913  4.66005966626  8.60276856102  m  1  1  1  v  1.11855563644e-05  -5.54331374466e-05  -2.85202011965e-05
8.77256229648  4.54416247398  4.28407294554  m  1  1  1  v  1.02670149018e-05  -1.13812066724e-05  9.17421495083e-06
4.51876881352  0.219986369714  8.65305108948  m  1  1  1  v  -3.4564990281e-05  2.16206945678e-05  -2.69083881351e-05
4.4325810464  0.0959624065905  4.36700018578  m  1  1  1  v  -6.61145009469e-06  -2.37718539561e-05  -2.21947894974e-05
4.47681583091  4.6108138005  8.62282196976  m  1  1  1  v  2.42805038455e-05  2.72167701778e-05  1.51302756405e-06
4.37863072945  4.4692305491  4.33491290912  m  1  1  1  v  8.7689095425e-07  2.86096704786e-05  4.79244357726e-05
8.77752673096  2.3107836576  2.12360123671  m  1  1  1  v  -6.32455245672e-06  -2.95111270991e-05  -7.52984863861e-06
8.80723652538  2.35713671441  6.51096757843  m  1  1  1  v  4.28953101311e-05  1.90035897295e-05  5.74391270615e-05
8.70529537975  6.68158167373  2.06396384151  m  1  1  1  v  5.99544140987e-06  -4.4977418739e-05  -4.45290602256e-05
8.768943653  6.74902752805  6.44707274832  m  1  1  1  v  -2.17049546518e-05  -7.70098582005e-05  2.80687337577e-05
4.36760058105  2.24627207459  2.13680163679  m  1  1  1  v  7.8077306335e-05  -4.91752671965e-05  1.00554887098e-05
4.42986390255  2.31140814559  6.5180254374  m  1  1  1  v  -3.2330219295e-05  9.54760314657e-06  6.06049947329e-05
4.34907197184  6.65340218403  2.10332784883  m  1  1  1  v  1.09070153235e-08  4.06399991487e-05  5.07395758176e-05
4.34769668014  6.70892714105  6.50094534134  m  1  1  1  v  1.92861628598e-05  4.80724403036e-06  9.74149433452e-07
2.22520069738  0.044818044804  2.19641877839  m  1  1  1  v  7.28418113835e-05  7.96953246256e-07  -1.48459162896e-05
2.03436809248  8.78649563879  6.5792261241  m  1  1  1  v  5.35786845957e-06  3.08828604155e-05  -4.98106218971e-05
2.15127070731  4.42670556182  2.14380615067  m  1  1  1  v  1.5888781866e-05  -4.7517400958e-05  4.30355136038e-05
2.20109562371  4.48004233778  6.52422385095  m  1  1  1  v  -4.84089564358e-05  -2.56876038298e-05  -4.50283348848e-05
6.60720677993  0.101267754722  2.14558708292  m  1  1  1  v  -3.26623807208e-05  9.87912378403e-06  -4.73535894507e-05
6.62585684807  0.136824788988  6.53959002141  m  1  1  1  v  1.72878384077e-05  2.54460938929e-06  1.72216041491e-05
6.54453943873  4.468370797  2.09514274753  m  1  1  1  v  -7.52639675946e-05  1.62555048001e-05  1.16192960044e-05
6.58365991838  4.50487379283  6.50554232988  m  1  1  1  v  -3.08144377278e-05  -2.69444770293e-05  9.29187560716e-05
2.27543997247  2.39577040097  8.64659666431  m  1  1  1  v  1.77852848625e-05  -7.08398904615e-07  -1.82397431004e-05
2.2026893934  2.26780129455  4.35538582488  m  1  1  1  v  2.79222341792e-05  -6.29508099695e-05  3.99229741533e-05
2.25583969234  6.7761525414  8.60962305309  m  1  1  1  v  1.61708984036e-05  -1.70515722088e-05  7.68769641182e-05
2.15941841769  6.64551038458  4.29178000615  m  1  1  1  v  -1.54466266158e-05  -4.75494084166e-06  -7.56634806296e-05
6.68159234258  2.42689962097  8.62113314111  m  1  1  1  v  1.4387864644e-05  -3.11479706246e-05  3.06544237109e-06
6.59059273311  2.30198899894  4.32736903045  m  1  1  1  v  -2.4696192286e-05  -2.63961180814e-05  6.35710686503e-05
6.64628052236  6.8279056708  8.59196499018  m  1  1  1  v  4.6622299377e-05  4.52199978439e-05  -2.14374462784e-05
6.55072497224  6.70859623962  4.28869746846  m  1  1  1  v  -4.9160368437e-05  5.45753590777e-05  5.97246082081e-05
