ATOMIC_SPECIES
Si  28.085        ./Si_ONCV_PBE-1.0.upf
C   12.011        ./C_ONCV_PBE-1.0.upf

NUMERICAL_ORBITAL
./Si_gga_9au_100Ry_3s3p2d.orb
./C_gga_9au_100Ry_3s3p2d.orb

LATTICE_CONSTANT
1.8897261258369282 

LATTICE_VECTORS
9.2205420000      0.0000000000      0.0000000000      
-4.610271000      7.9852240000      0.0000000000      
0.0000000000      0.0000000000      10.090495000      

ATOMIC_POSITIONS
Direct

Si
0.0000000000
36
0.1111110000 0.2222220000 0.2498010000 1 1 1 mag 0.0 
0.7777780000 0.8888890000 0.2498010000 1 1 1 mag 0.0 
0.1111110000 0.8888890000 0.2498010000 1 1 1 mag 0.0 
0.8888890000 0.7777780000 0.4998010000 1 1 1 mag 0.0 
0.2222220000 0.1111110000 0.4998010000 1 1 1 mag 0.0 
0.8888890000 0.1111110000 0.4998010000 1 1 1 mag 0.0 
0.1111110000 0.2222220000 0.7498010000 1 1 1 mag 0.0 
0.7777780000 0.8888890000 0.7498010000 1 1 1 mag 0.0 
0.1111110000 0.8888890000 0.7498010000 1 1 1 mag 0.0 
0.8888890000 0.7777780000 0.9998010000 1 1 1 mag 0.0 
0.2222220000 0.1111110000 0.9998010000 1 1 1 mag 0.0 
0.8888890000 0.1111110000 0.9998010000 1 1 1 mag 0.0 
0.1111110000 0.5555550000 0.2498010000 1 1 1 mag 0.0 
0.4444450000 0.5555560000 0.2498010000 1 1 1 mag 0.0 
0.4444440000 0.8888890000 0.2498010000 1 1 1 mag 0.0 
0.8888890000 0.4444450000 0.4998010000 1 1 1 mag 0.0 
0.5555550000 0.4444440000 0.4998010000 1 1 1 mag 0.0 
0.5555560000 0.1111110000 0.4998010000 1 1 1 mag 0.0 
0.1111110000 0.5555550000 0.7498010000 1 1 1 mag 0.0 
0.4444450000 0.5555560000 0.7498010000 1 1 1 mag 0.0 
0.4444440000 0.8888890000 0.7498010000 1 1 1 mag 0.0 
0.8888890000 0.4444450000 0.9998010000 1 1 1 mag 0.0 
0.5555550000 0.4444440000 0.9998010000 1 1 1 mag 0.0 
0.5555560000 0.1111110000 0.9998010000 1 1 1 mag 0.0 
0.4444440000 0.2222220000 0.2498010000 1 1 1 mag 0.0 
0.7777780000 0.2222220000 0.2498010000 1 1 1 mag 0.0 
0.7777780000 0.5555560000 0.2498010000 1 1 1 mag 0.0 
0.5555560000 0.7777780000 0.4998010000 1 1 1 mag 0.0 
0.2222220000 0.7777780000 0.4998010000 1 1 1 mag 0.0 
0.2222220000 0.4444440000 0.4998010000 1 1 1 mag 0.0 
0.4444440000 0.2222220000 0.7498010000 1 1 1 mag 0.0 
0.7777780000 0.2222220000 0.7498010000 1 1 1 mag 0.0 
0.7777780000 0.5555560000 0.7498010000 1 1 1 mag 0.0 
0.5555560000 0.7777780000 0.9998010000 1 1 1 mag 0.0 
0.2222220000 0.7777780000 0.9998010000 1 1 1 mag 0.0 
0.2222220000 0.4444440000 0.9998010000 1 1 1 mag 0.0 

C
0.0000000000
36
0.1111110000 0.2222220000 0.4376990000 1 1 1 mag 0.0 
0.7777780000 0.8888890000 0.4376990000 1 1 1 mag 0.0 
0.1111110000 0.8888890000 0.4376990000 1 1 1 mag 0.0 
0.8888890000 0.7777780000 0.6876990000 1 1 1 mag 0.0 
0.2222220000 0.1111110000 0.6876990000 1 1 1 mag 0.0 
0.8888890000 0.1111110000 0.6876990000 1 1 1 mag 0.0 
0.1111110000 0.2222220000 0.9376990000 1 1 1 mag 0.0 
0.7777780000 0.8888890000 0.9376990000 1 1 1 mag 0.0 
0.1111110000 0.8888890000 0.9376990000 1 1 1 mag 0.0 
0.8888890000 0.7777780000 0.1876990000 1 1 1 mag 0.0 
0.2222220000 0.1111110000 0.1876990000 1 1 1 mag 0.0 
0.8888890000 0.1111110000 0.1876990000 1 1 1 mag 0.0 
0.1111110000 0.5555550000 0.4376990000 1 1 1 mag 0.0 
0.4444450000 0.5555560000 0.4376990000 1 1 1 mag 0.0 
0.4444440000 0.8888890000 0.4376990000 1 1 1 mag 0.0 
0.8888890000 0.4444450000 0.6876990000 1 1 1 mag 0.0 
0.5555550000 0.4444440000 0.6876990000 1 1 1 mag 0.0 
0.5555560000 0.1111110000 0.6876990000 1 1 1 mag 0.0 
0.1111110000 0.5555550000 0.9376990000 1 1 1 mag 0.0 
0.4444450000 0.5555560000 0.9376990000 1 1 1 mag 0.0 
0.4444440000 0.8888890000 0.9376990000 1 1 1 mag 0.0 
0.8888890000 0.4444450000 0.1876990000 1 1 1 mag 0.0 
0.5555550000 0.4444440000 0.1876990000 1 1 1 mag 0.0 
0.5555560000 0.1111110000 0.1876990000 1 1 1 mag 0.0 
0.4444440000 0.2222220000 0.4376990000 1 1 1 mag 0.0 
0.7777780000 0.2222220000 0.4376990000 1 1 1 mag 0.0 
0.7777780000 0.5555560000 0.4376990000 1 1 1 mag 0.0 
0.5555560000 0.7777780000 0.6876990000 1 1 1 mag 0.0 
0.2222220000 0.7777780000 0.6876990000 1 1 1 mag 0.0 
0.2222220000 0.4444440000 0.6876990000 1 1 1 mag 0.0 
0.4444440000 0.2222220000 0.9376990000 1 1 1 mag 0.0 
0.7777780000 0.2222220000 0.9376990000 1 1 1 mag 0.0 
0.7777780000 0.5555560000 0.9376990000 1 1 1 mag 0.0 
0.5555560000 0.7777780000 0.1876990000 1 1 1 mag 0.0 
0.2222220000 0.7777780000 0.1876990000 1 1 1 mag 0.0 
0.2222220000 0.4444440000 0.1876990000 1 1 1 mag 0.0 

