ATOMIC_SPECIES
Ba 137.327 ./Ba_ONCV_PBE-1.0.upf
Ti 47.867 ./Ti_ONCV_PBE-1.0.upf
O 15.999 ./O_ONCV_PBE-1.0.upf

NUMERICAL_ORBITAL
./Ba_gga_11au_100Ry_4s2p2d.orb
./Ti_gga_9au_100Ry_4s2p2d1f.orb
./O_gga_7au_100Ry_2s2p1d.orb

LATTICE_CONSTANT
1.889716

LATTICE_VECTORS
    5.75467     0.00000     0.00000
   -2.87734     4.98369     0.00000
    0.00000     0.00000     7.10999

ATOMIC_POSITIONS
Direct

Ba
0.0
3
  0.0000000   0.0000000   0.0020690 1 1 1
  0.6666667   0.3333333   0.3354023 1 1 1
  0.3333333   0.6666667   0.6687357 1 1 1

Ti
0.0
3
  0.0000000   0.0000000   0.5164400 1 1 1
  0.6666667   0.3333333   0.8497733 1 1 1
  0.3333333   0.6666667   0.1831067 1 1 1

O
0.0
9
  0.8369553   0.6739107   0.6476637 1 1 1
  0.3260893   0.1630447   0.6476637 1 1 1
  0.8369553   0.1630447   0.6476637 1 1 1
  0.5036220   0.0072440   0.9809970 1 1 1
  0.9927560   0.4963780   0.9809970 1 1 1
  0.5036220   0.4963780   0.9809970 1 1 1
  0.1702887   0.3405773   0.3143303 1 1 1
  0.6594227   0.8297113   0.3143303 1 1 1
  0.1702887   0.8297113   0.3143303 1 1 1

