INPUT_PARAMETERS
#Parameters (1.General)
calculation     scf
nbands			490  #occupied bands = 428, 513 for nspin1
symmetry   		1

nx 128
ny 128
nz 256

#Parameters (2.Iteration)
ecutwfc			80
scf_thr			1e-7
scf_nmax		100
cal_force 		1
cal_stress 		1
#Parameters (3.Basis)
basis_type		pw

#Parameters (4.Smearing)
smearing_method	gauss
smearing_sigma	0.002

#Parameters (5.Mixing)
mixing_type     broyden
mixing_beta     0.3
ks_solver 		dav_subspace

nspin			2
