ATOMIC_SPECIES
Si 28.085 Si_ONCV_PBE-1.0.upf
C 12.011 C_ONCV_PBE-1.0.upf

LATTICE_CONSTANT
1.8897261254578281

LATTICE_VECTORS
8.783385481097472 -7.836419177479429e-15 -1.1066744661785472e-15 
-7.836419177479429e-15 8.783385481097472 -1.8905490461445927e-15 
-1.1066744661785472e-15 -1.8905490461445927e-15 8.783385481097472 

ATOMIC_POSITIONS
Cartesian    # Cartesian(Unit is LATTICE_CONSTANT)
Si
0.0
32
3.293769555412 1.097923185137 3.293769555394 1 1 1
3.293769555412 1.097923185137 7.685462295978 1 1 1
3.293769555412 5.489615925686 3.293769555394 1 1 1
3.293769555412 5.489615925686 7.685462295978 1 1 1
7.685462295960 1.097923185137 3.293769555394 1 1 1
7.685462295960 1.097923185137 7.685462295978 1 1 1
7.685462295960 5.489615925686 3.293769555394 1 1 1
7.685462295960 5.489615925686 7.685462295978 1 1 1
3.293769555412 3.293769555403 1.097923185146 1 1 1
3.293769555412 3.293769555403 5.489615925677 1 1 1
3.293769555412 7.685462295969 1.097923185146 1 1 1
3.293769555412 7.685462295969 5.489615925677 1 1 1
7.685462295960 3.293769555412 1.097923185146 1 1 1
7.685462295960 3.293769555403 5.489615925677 1 1 1
7.685462295960 7.685462295960 1.097923185146 1 1 1
7.685462295960 7.685462295969 5.489615925677 1 1 1
1.097923185137 1.097923185137 1.097923185146 1 1 1
1.097923185137 1.097923185137 5.489615925677 1 1 1
1.097923185137 5.489615925686 1.097923185146 1 1 1
1.097923185137 5.489615925686 5.489615925677 1 1 1
5.489615925686 1.097923185137 1.097923185146 1 1 1
5.489615925686 1.097923185137 5.489615925677 1 1 1
5.489615925686 5.489615925686 1.097923185146 1 1 1
5.489615925686 5.489615925686 5.489615925677 1 1 1
1.097923185137 3.293769555403 3.293769555394 1 1 1
1.097923185137 3.293769555403 7.685462295978 1 1 1
1.097923185137 7.685462295969 3.293769555394 1 1 1
1.097923185137 7.685462295969 7.685462295978 1 1 1
5.489615925686 3.293769555403 3.293769555394 1 1 1
5.489615925686 3.293769555403 7.685462295978 1 1 1
5.489615925686 7.685462295969 3.293769555394 1 1 1
5.489615925686 7.685462295969 7.685462295978 1 1 1
C
0.0
32
8.783385481097 0.000000000004 0.000000000019 1 1 1
8.783385481097 0.000000000003 4.391692740531 1 1 1
8.783385481097 4.391692740549 0.000000000020 1 1 1
8.783385481097 4.391692740549 4.391692740531 1 1 1
4.391692740549 0.000000000004 0.000000000022 1 1 1
4.391692740549 0.000000000004 4.391692740522 1 1 1
4.391692740549 4.391692740540 0.000000000023 1 1 1
4.391692740549 4.391692740549 4.391692740522 1 1 1
8.783385481097 2.195846370274 2.195846370266 1 1 1
8.783385481097 2.195846370266 6.587539110832 1 1 1
8.783385481097 6.587539110823 2.195846370266 1 1 1
8.783385481097 6.587539110832 6.587539110832 1 1 1
4.391692740549 2.195846370266 2.195846370266 1 1 1
4.391692740549 2.195846370266 6.587539110832 1 1 1
4.391692740549 6.587539110832 2.195846370266 1 1 1
4.391692740549 6.587539110832 6.587539110832 1 1 1
2.195846370274 0.000000000004 2.195846370266 1 1 1
2.195846370274 0.000000000004 6.587539110832 1 1 1
2.195846370274 4.391692740540 2.195846370266 1 1 1
2.195846370274 4.391692740549 6.587539110832 1 1 1
6.587539110823 0.000000000004 2.195846370266 1 1 1
6.587539110823 0.000000000003 6.587539110832 1 1 1
6.587539110823 4.391692740549 2.195846370266 1 1 1
6.587539110823 4.391692740549 6.587539110832 1 1 1
2.195846370274 2.195846370274 0.000000000022 1 1 1
2.195846370274 2.195846370266 4.391692740522 1 1 1
2.195846370274 6.587539110823 0.000000000022 1 1 1
2.195846370274 6.587539110832 4.391692740531 1 1 1
6.587539110823 2.195846370274 0.000000000021 1 1 1
6.587539110823 2.195846370266 4.391692740531 1 1 1
6.587539110823 6.587539110823 0.000000000020 1 1 1
6.587539110823 6.587539110832 4.391692740531 1 1 1

NUMERICAL_ORBITAL
Si_gga_9au_100Ry_3s3p2d.orb
C_gga_9au_100Ry_3s3p2d.orb
