ATOMIC_SPECIES
H 1.008 H_ONCV_PBE-1.0.upf upf201

NUMERICAL_ORBITAL
H_gga_6au_100Ry_2s1p.orb

LATTICE_CONSTANT
1

LATTICE_VECTORS
20 0 0 #latvec1
0 20 0 #latvec2
0 0 20 #latvec3

ATOMIC_POSITIONS
Cartesian

H #label
0 #magnetism
2 #number of atoms
10.1504894046  10.5605348613  9.75031266064  m  1  1  1  v  -0.000527479338344  -0.000734998733316  -0.000325252585153
10.7295105954  10.3194651387  11.1296873394  m  1  1  1  v  0.000527479338344  0.000734998733316  0.000325252585153
