ATOMIC_SPECIES
Si 28.085 Si_ONCV_PBE-1.0.upf upf201
C 12.011 C_ONCV_PBE-1.0.upf upf201

NUMERICAL_ORBITAL
Si_gga_9au_100Ry_3s3p2d.orb
C_gga_9au_100Ry_3s3p2d.orb

LATTICE_CONSTANT
1.88972612546

LATTICE_VECTORS
9.24242506372 0 0 #latvec1
-4.54108822292 8.17995928145 0 #latvec2
-0.193842849022 -0.117303658888 9.98674731985 #latvec3

ATOMIC_POSITIONS
Cartesian

Si #label
0 #magnetism
36 #number of atoms
-0.0102112415877  1.79262890544  2.5497845833  m  1  1  1  v  9.99071065701e-05  0.000261928894519  -0.00014764093929
3.13166197683  7.12260913985  2.60111115516  m  1  1  1  v  0.00026408883856  0.000145716849862  -0.00023527276344
-3.08788195977  7.15727685373  2.54528925577  m  1  1  1  v  0.000168652247619  1.08814050649e-05  0.000153233181218
4.62321402532  6.20859789354  5.16725593916  m  1  1  1  v  -8.56898109901e-05  1.1950646955e-05  -2.85049542874e-05
1.48731160581  0.859939228892  5.10412807309  m  1  1  1  v  -5.77427938291e-05  -3.10503158713e-05  0.000101386842049
7.70372919621  0.853666619607  5.15671702411  m  1  1  1  v  -0.000112737519324  1.44923352987e-05  2.72328934786e-05
-0.0733894437784  1.73912231773  7.63991256981  m  1  1  1  v  0.0002726608634  -3.11727056153e-05  9.14040045667e-05
3.06172513325  7.11814517646  7.69807013757  m  1  1  1  v  -6.19342924159e-05  -0.000279922288068  -4.16773255666e-05
-3.12340387736  7.1275162205  7.64852313692  m  1  1  1  v  -0.000102250217571  0.000162504303408  0.000245267017046
4.76367741381  6.2839030902  0.253964625088  m  1  1  1  v  -0.000209128346924  -0.000145728763789  5.09784510711e-05
1.64452634149  0.93498140034  0.186811740586  m  1  1  1  v  -7.52999302657e-05  0.000255330654069  1.05858691538e-05
7.85631635172  0.914387748027  0.250032628518  m  1  1  1  v  6.75478740078e-05  0.000188025311748  -0.00018770267347
-1.58016636667  4.46511924066  2.56946083822  m  1  1  1  v  0.000180542626187  2.99205261676e-05  0.000197621655865
1.54417829279  4.45812779281  2.58741118527  m  1  1  1  v  -3.74670204954e-05  -6.12399567075e-05  0.000180468616748
0.0101661087152  7.14367045217  2.5723916039  m  1  1  1  v  -5.78623527845e-05  0.000221713796853  0.000179705538235
6.16713605392  3.50865632276  5.17611246419  m  1  1  1  v  4.51642932067e-05  -0.000219192068458  -0.000137128633595
3.05599860789  3.52712908923  5.12387654482  m  1  1  1  v  -0.00023642296757  5.33584193991e-05  -0.000150874867836
4.60351853047  0.833641250287  5.16242762198  m  1  1  1  v  -0.000167264160495  -3.61424708395e-05  -0.000128816572644
-1.60782180503  4.44427642676  7.63832938345  m  1  1  1  v  -0.000181643107328  0.000192533305147  3.37220447335e-05
1.49592591842  4.41700197212  7.69206438376  m  1  1  1  v  6.04243731901e-05  -2.01554593648e-05  0.000187520449067
-0.0335769659192  7.14288650152  7.67090303111  m  1  1  1  v  0.000161945601885  0.000235871919255  0.00013696885834
6.30791846233  3.6153835847  0.237410634183  m  1  1  1  v  -0.000124056578998  -1.78576824695e-05  -2.49803636792e-05
3.22595906304  3.61663156736  0.224612979827  m  1  1  1  v  6.03733651844e-05  -0.000172770976308  -8.4253728001e-06
4.75035879827  0.921926467966  0.219210245679  m  1  1  1  v  -8.97048388804e-05  0.000100248534682  -5.04151174158e-05
3.0810138566  1.76236765286  2.57661723528  m  1  1  1  v  9.67321474882e-05  -0.000283819839312  0.000222507454414
6.16664164843  1.75109793106  2.6187594286  m  1  1  1  v  0.000255394206709  9.68157401931e-05  -1.22684692868e-05
4.62545639083  4.43810918258  2.62199613533  m  1  1  1  v  0.000138286326979  0.000184370230625  4.05463078073e-05
1.53959367767  6.22738091329  5.13209409819  m  1  1  1  v  -3.90913916357e-05  4.26976361679e-05  -2.84482151031e-06
-1.57952756795  6.24206353997  5.09717623353  m  1  1  1  v  0.000183364250151  0.000172862511984  -0.00013933448721
-0.00829469652217  3.54313862382  5.11057097603  m  1  1  1  v  -0.000131931797799  0.000222713451447  -0.000160524667939
3.02401257357  1.72151077172  7.67489677026  m  1  1  1  v  -0.000250349838758  4.74727911489e-05  7.1779954195e-05
6.13724941586  1.73047857235  7.67824014585  m  1  1  1  v  0.000210124653839  -6.83034921527e-05  6.91251361759e-05
4.60457755505  4.41884864715  7.68903396101  m  1  1  1  v  -0.000107914651977  -3.16346595816e-06  0.000216800027242
1.67793735185  6.29660539992  0.22503981889  m  1  1  1  v  -5.29621176712e-05  -6.54466263939e-05  -4.41798698104e-05
-1.43303112334  6.32481930375  0.170355053782  m  1  1  1  v  -5.00808973268e-05  8.43248119273e-06  2.88084411703e-05
0.126636874406  3.63455207981  0.182913996277  m  1  1  1  v  0.000139539737999  -6.88772851371e-05  -0.000211522964851

C #label
0 #magnetism
36 #number of atoms
-0.056140351322  1.76702783613  4.46240238232  m  1  1  1  v  0.000228219271867  7.62463056752e-05  2.68089429588e-05
3.08066045512  7.09947990098  4.50256589403  m  1  1  1  v  0.000246346025272  8.06966156229e-05  -0.000418234844548
-3.12256653098  7.16538473804  4.46595788198  m  1  1  1  v  -0.000266667748071  0.000326639220591  0.000334154959832
4.63534426688  6.19815615541  7.04323817086  m  1  1  1  v  -3.67173708039e-05  -0.000376945406779  0.000157319445837
1.47610074356  0.860114968832  7.000878082  m  1  1  1  v  -0.000237666710629  -0.000317362507601  -0.000257997316713
7.69288106142  0.812409874591  7.04225169298  m  1  1  1  v  -0.000160395438962  -0.000481130723677  0.000134663757764
-0.10728651257  1.72417745554  9.56724300853  m  1  1  1  v  1.64035257174e-05  -0.000106422229698  0.000115291954499
3.03567237891  7.09007359636  9.59437070551  m  1  1  1  v  -0.000170916314743  0.000353122776091  1.43987599244e-05
-3.13809769473  7.12556678063  9.54468406871  m  1  1  1  v  0.000315495956771  0.000258162625557  4.39518119788e-05
4.6843928587  6.20480812608  2.00983429949  m  1  1  1  v  -0.000128424698073  -2.60616808881e-05  0.000496209410509
1.53133424524  0.868327979696  1.96308568171  m  1  1  1  v  0.000152704155586  0.000119843018016  8.45329116564e-05
7.72474365157  0.841139515127  2.02486113094  m  1  1  1  v  0.00016528636382  -0.000158021359861  0.000109411087906
-1.60126235709  4.44971680204  4.46369812561  m  1  1  1  v  -0.000226327258433  -0.000403893886485  -0.000126571010862
1.51871073169  4.48362141613  4.47226603841  m  1  1  1  v  -0.000433361433137  6.23372343595e-05  -2.58666695776e-05
-0.00475994058157  7.15749911559  4.50957062148  m  1  1  1  v  0.000210747532861  -0.000112252097155  -0.000325912788029
6.14349397548  3.53291965593  7.07185692418  m  1  1  1  v  -9.31188009778e-05  0.000229048455231  -0.000293671295726
3.03627689444  3.50862706511  7.03041842826  m  1  1  1  v  7.53504540911e-05  -0.000253561104731  0.00013845490636
4.59128177219  0.828630545593  7.02605397534  m  1  1  1  v  0.000186769190198  2.86344674365e-05  -1.67017330864e-05
-1.64959150698  4.4078654502  9.54919371516  m  1  1  1  v  -0.000252795284302  -0.000118310815427  -0.000330864444599
1.49392942293  4.43163290778  9.57280073009  m  1  1  1  v  0.000242469945507  0.000252744320075  0.000134839941468
-0.0598032093661  7.10320406841  9.5913007462  m  1  1  1  v  0.000186249903321  -4.00863356147e-05  0.000281140394615
6.20091029725  3.54122090724  2.00709388009  m  1  1  1  v  0.00015385838555  8.91842582842e-05  -0.000266219775141
3.10811944425  3.53892325167  1.96775180707  m  1  1  1  v  0.000224767062733  -0.000139867002524  -0.000121744361583
4.64781267009  0.851973266819  1.9937512482  m  1  1  1  v  5.80249403803e-05  -0.000123056783679  -4.27768010951e-05
3.05916361879  1.76730272993  4.48808777488  m  1  1  1  v  3.55944051643e-05  8.10782525242e-05  -0.000257571416586
6.19081782276  1.7312759461  4.51542365612  m  1  1  1  v  0.000180437833803  3.32982017488e-05  1.28207978039e-05
4.64155974746  4.43908640684  4.517861739  m  1  1  1  v  -6.47534101133e-05  7.28978459125e-05  -0.000264860499697
1.51765367447  6.21105953496  7.06698596547  m  1  1  1  v  7.48509681486e-05  -0.000198886491554  0.000264053840328
-1.59564746086  6.23452850873  7.0359089843  m  1  1  1  v  5.06116686849e-05  7.15191899059e-06  0.000145322624151
-0.0482208995066  3.54261320762  7.01657787783  m  1  1  1  v  0.000215813110098  -0.000257720498203  -4.99174069143e-05
3.01617794561  1.73504929917  9.55994997333  m  1  1  1  v  -0.000142125957085  -0.000111739402422  -0.000138512343509
6.12364018166  1.68973744972  9.59869522024  m  1  1  1  v  0.000141461386521  -0.000394620652569  -5.30245963692e-05
4.57464245684  4.38844687053  9.60250404648  m  1  1  1  v  -0.00016673582114  -0.000165657614991  0.000291069780624
1.57260772359  6.23764944072  1.98664985596  m  1  1  1  v  0.00011381137169  -7.17497340526e-05  0.000291837605143
-1.54140139609  6.22858609895  1.97796976978  m  1  1  1  v  -5.5529906269e-06  -2.54749453707e-05  0.000363501987439
-0.00547770085491  3.57179661106  1.93871658284  m  1  1  1  v  -0.000255719211006  0.000173591474513  -3.86248654486e-05
