ATOMIC_SPECIES
Si 28.085 Si_ONCV_PBE-1.0.upf upf201
C 12.011 C_ONCV_PBE-1.0.upf upf201

NUMERICAL_ORBITAL
Si_gga_9au_100Ry_3s3p2d.orb
C_gga_9au_100Ry_3s3p2d.orb

LATTICE_CONSTANT
1.88972612546

LATTICE_VECTORS
9.24242506372 0 0 #latvec1
-4.54108822292 8.17995928145 0 #latvec2
-0.193842849022 -0.117303658888 9.98674731985 #latvec3

ATOMIC_POSITIONS
Cartesian

Si #label
0 #magnetism
36 #number of atoms
-0.0140026836211  1.77972993785  2.54557926365  m  1  1  1  v  2.08222112447e-05  -5.34848695057e-06  1.34555746122e-05
3.12013656524  7.12341389672  2.59945401462  m  1  1  1  v  8.80550339023e-06  -1.47003972316e-05  2.75078094137e-05
-3.0823522138  7.16206688626  2.54548703972  m  1  1  1  v  -5.13704579227e-05  1.41017324051e-05  -1.22500325592e-05
4.63800668794  6.21419911401  5.16901377913  m  1  1  1  v  5.06210832341e-05  -5.44693153308e-05  3.69179263889e-06
1.49903788191  0.85538619681  5.10293399499  m  1  1  1  v  1.45510166814e-05  3.88272604189e-05  -2.83786180457e-05
7.71568134445  0.838541589015  5.14887870048  m  1  1  1  v  3.19016495298e-07  -5.67690194237e-06  5.60940028368e-06
-0.0685822504062  1.74332238359  7.63288030685  m  1  1  1  v  -3.59402677604e-05  -4.7374172969e-06  -8.39284815119e-07
3.0733214439  7.10796207987  7.70460320314  m  1  1  1  v  2.41853717426e-05  2.49994627707e-05  -4.10585253683e-05
-3.12372075612  7.11335702813  7.63547872462  m  1  1  1  v  4.91735204922e-05  1.34704857126e-05  -2.21277793633e-06
4.78377241787  6.27696644516  0.256899238479  m  1  1  1  v  4.51656259477e-06  -1.56630651859e-05  2.29569199702e-05
1.66199469  0.940318237623  0.197878377191  m  1  1  1  v  -3.60673516164e-06  4.31457733531e-05  -7.86229155721e-06
7.84813238029  0.913142176126  0.268520312277  m  1  1  1  v  1.52729539727e-05  -3.04159189209e-05  -2.5113218204e-05
-1.56958035521  4.46601338153  2.5533877055  m  1  1  1  v  -6.1575338024e-06  -1.85475888336e-05  -2.91298305641e-05
1.54032569873  4.44961990033  2.57992478571  m  1  1  1  v  6.82219232602e-06  2.35216016119e-05  -9.81867343464e-06
0.0185429443921  7.14309228218  2.59119737128  m  1  1  1  v  -9.31283028812e-06  -1.4861185074e-05  -4.55236308994e-05
6.16480941852  3.51439188253  5.17162126567  m  1  1  1  v  -1.31307426207e-07  -1.28883568417e-05  3.20378699329e-05
3.05755121293  3.53185614845  5.13017251154  m  1  1  1  v  -3.57207413218e-06  5.65397935133e-05  -1.06519198904e-06
4.61329703061  0.833913583522  5.15397575692  m  1  1  1  v  -2.18821980159e-05  7.66364199516e-07  1.65814596405e-05
-1.59653832192  4.43589596137  7.62497606448  m  1  1  1  v  6.00738108406e-07  7.63174208248e-06  -2.47717324543e-05
1.48594000781  4.40700692596  7.69142795898  m  1  1  1  v  1.7587874155e-05  3.70421200359e-05  -3.70673936403e-05
-0.0348663504642  7.12033317043  7.66768155472  m  1  1  1  v  5.3533948387e-06  -1.94670914353e-05  -6.11241697166e-06
6.31641551633  3.62344799379  0.250469449201  m  1  1  1  v  1.8244697657e-05  2.82925424105e-05  -1.48488975351e-05
3.2194246496  3.62129916624  0.22327282441  m  1  1  1  v  -1.37193485462e-05  1.24263692237e-05  -2.94349873755e-05
4.74057695717  0.917086703748  0.233755907279  m  1  1  1  v  2.66233922009e-05  1.69441610939e-05  5.69915681345e-07
3.0816674047  1.74876773661  2.56418416895  m  1  1  1  v  2.58302585565e-06  2.65374634387e-05  -4.88169442525e-06
6.18072722141  1.74449350358  2.60890864913  m  1  1  1  v  1.23301498859e-05  -6.6101623716e-06  2.91507443929e-05
4.63323614594  4.43202231637  2.62033041812  m  1  1  1  v  -7.94985273518e-07  1.85029206306e-05  -4.40263366491e-06
1.52769588193  6.21944074468  5.13745245036  m  1  1  1  v  -4.57363578911e-05  5.29439844793e-05  -2.59179792814e-05
-1.58109885421  6.2424860426  5.0934838048  m  1  1  1  v  1.28455016267e-05  -3.38609726261e-05  2.37431330036e-05
-0.0166924481471  3.53836216776  5.1144120454  m  1  1  1  v  -2.49032512124e-05  -3.9395597677e-06  -4.0296572377e-05
3.03762627949  1.72731284366  7.67266244933  m  1  1  1  v  -2.88074898566e-05  -1.177375606e-05  3.40952242417e-05
6.13528043723  1.72053332108  7.67937193136  m  1  1  1  v  -6.10086977136e-05  2.73674370865e-06  3.91217072301e-05
4.60331417649  4.41352131492  7.6872908661  m  1  1  1  v  3.16797747136e-05  -2.13812044224e-05  3.20890412082e-05
1.67116596524  6.30125414294  0.240739502371  m  1  1  1  v  -2.54901981885e-05  -1.6014034434e-05  -2.73751988562e-05
-1.42703628326  6.32076224681  0.183558916636  m  1  1  1  v  5.05569824879e-06  -3.46447231809e-05  -1.99980436516e-05
0.118860807693  3.63418591154  0.19697453082  m  1  1  1  v  4.44762661357e-06  -5.48247991553e-06  4.95554440045e-06

C #label
0 #magnetism
36 #number of atoms
-0.0423838424067  1.75366654356  4.45408862903  m  1  1  1  v  -3.45923957259e-05  2.31947392564e-05  -2.78639326482e-05
3.09367908206  7.11396136184  4.53291666791  m  1  1  1  v  -6.29539355816e-06  -2.27555423688e-05  -2.3092418558e-05
-3.1173206731  7.14088831978  4.45950418831  m  1  1  1  v  2.49761263203e-05  2.88595732134e-05  9.06693765834e-07
4.61252440139  6.20805593787  7.06233436507  m  1  1  1  v  1.28495588891e-06  3.02695879223e-05  4.78883536891e-05
1.47562133104  0.860787000738  7.01009510487  m  1  1  1  v  -6.00497084141e-06  -2.85653333107e-05  -8.24729123228e-06
7.69361779485  0.822267305121  7.07125108623  m  1  1  1  v  4.3819650622e-05  2.05454783474e-05  5.7519950912e-05
-0.0819457837674  1.74394464602  9.56468699165  m  1  1  1  v  6.4663973941e-06  -4.42216575238e-05  -4.57011079404e-05
3.03492396571  7.08393278407  9.61180135106  m  1  1  1  v  -2.15743502958e-05  -7.66476759401e-05  2.7788686913e-05
-3.14636910843  7.11028190542  9.53443189903  m  1  1  1  v  7.94339240274e-05  -4.84710844697e-05  9.5541151639e-06
4.67631973831  6.22307570568  1.9937585869  m  1  1  1  v  -3.2330166362e-05  1.09733071286e-05  6.07247172409e-05
1.53333655269  0.863775481569  1.93463658852  m  1  1  1  v  4.08331703428e-07  4.2447731878e-05  5.07380830409e-05
7.73544853015  0.83380765262  1.9906834022  m  1  1  1  v  1.99204204328e-05  6.17470375692e-06  3.61194500694e-07
-1.58028833981  4.4700198481  4.46970994108  m  1  1  1  v  7.41341011426e-05  2.11513898427e-06  -1.56532505777e-05
1.53567769974  4.45657228995  4.50542426219  m  1  1  1  v  5.82099065719e-06  3.25707082865e-05  -5.10475635618e-05
-0.00177458046757  7.1435825679  4.49624276367  m  1  1  1  v  1.64812962036e-05  -4.67928482166e-05  4.29393618875e-05
6.14553957794  3.50517919499  7.07165001783  m  1  1  1  v  -4.86064611245e-05  -2.46948308442e-05  -4.62065171308e-05
3.04823010798  3.52971993313  7.03816258466  m  1  1  1  v  -3.26664090176e-05  1.13089011225e-05  -4.85603418362e-05
4.59748357412  0.831087431996  7.04800386006  m  1  1  1  v  1.78975427945e-05  3.88426838035e-06  1.68082798518e-05
-1.6286298983  4.42321626796  9.54950936754  m  1  1  1  v  -7.5791436763e-05  1.77636280098e-05  1.11371367816e-05
1.49629683179  4.41740547799  9.58982394267  m  1  1  1  v  -3.07957605584e-05  -2.59671471023e-05  9.34355141043e-05
-0.0630242244064  7.11340139645  9.57830984964  m  1  1  1  v  1.84011013175e-05  5.91290742065e-07  -1.9088776954e-05
6.19983405976  3.53226280937  1.99908322088  m  1  1  1  v  2.86626021822e-05  -6.24158857762e-05  3.97885790174e-05
3.09566218945  3.54203708246  1.96430605436  m  1  1  1  v  1.67668790751e-05  -1.5952689281e-05  7.71966184706e-05
4.632231958  0.862807633194  1.95734649297  m  1  1  1  v  -1.52391268922e-05  -3.50497059733e-06  -7.72180734408e-05
3.04915930176  1.75289858827  4.49254975834  m  1  1  1  v  1.49619373817e-05  -3.02222885472e-05  2.47818291774e-06
6.17830343611  1.74330262052  4.52916463892  m  1  1  1  v  -2.4602340928e-05  -2.54120505301e-05  6.37272349724e-05
4.62541210044  4.42045312251  4.53536826959  m  1  1  1  v  4.75924329625e-05  4.70840044982e-05  -2.23257699486e-05
1.50353388656  6.21878247056  7.03770517503  m  1  1  1  v  -4.93671056398e-05  5.65543139957e-05  5.98335135065e-05
-1.59268580733  6.2216789871  7.02948725787  m  1  1  1  v  3.89978628582e-05  -3.1159385664e-05  2.32768776533e-05
-0.0586566204091  3.53637138403  7.01712395187  m  1  1  1  v  -3.89061135847e-05  2.41624980458e-05  7.0394117947e-06
3.03108630015  1.72768250152  9.5675748332  m  1  1  1  v  2.3461407892e-05  -4.56840597088e-05  6.14269478324e-07
6.11889819212  1.71281475494  9.61627686327  m  1  1  1  v  -4.13939429452e-05  -1.0535026747e-05  1.99978088189e-05
4.57100608621  4.38948807894  9.60768496383  m  1  1  1  v  3.34761223275e-06  -2.0306499026e-05  -3.42453865083e-05
1.56637488021  6.2500953917  1.9627737486  m  1  1  1  v  -1.90023527478e-05  6.25243107546e-05  6.97428300338e-05
-1.54822967448  6.25603670203  1.93696512449  m  1  1  1  v  3.04790471808e-05  -4.47570255169e-05  3.52521851059e-05
-0.00792052293342  3.56271089784  1.9371963019  m  1  1  1  v  -3.61640007638e-05  -1.8604412712e-05  -4.22262413575e-05
