ATOMIC_SPECIES
Si 28.085 ./Si.upf

NUMERICAL_ORBITAL
./Si_gga_8au_100Ry_2s2p1d.orb

LATTICE_CONSTANT
1.88972

LATTICE_VECTORS
 16.4061900   0.0000000   0.0000000
  0.0000000  16.4061900   0.0000000
  0.0000000   0.0000000  16.4061900

ATOMIC_POSITIONS
Direct

Si
0.0
216
  0.0833333   0.2500000   0.0833333 1 1 1
  0.0000000   0.0000000   0.1666667 1 1 1
  0.0833333   0.0833333   0.2500000 1 1 1
  0.0000000   0.1666667   0.0000000 1 1 1
  0.2500000   0.2500000   0.2500000 1 1 1
  0.1666667   0.0000000   0.0000000 1 1 1
  0.2500000   0.0833333   0.0833333 1 1 1
  0.1666667   0.1666667   0.1666667 1 1 1
  0.0833333   0.2500000   0.4166667 1 1 1
  0.0000000   0.0000000   0.5000000 1 1 1
  0.0833333   0.0833333   0.5833333 1 1 1
  0.0000000   0.1666667   0.3333333 1 1 1
  0.2500000   0.2500000   0.5833333 1 1 1
  0.1666667   0.0000000   0.3333333 1 1 1
  0.2500000   0.0833333   0.4166667 1 1 1
  0.1666667   0.1666667   0.5000000 1 1 1
  0.0833333   0.2500000   0.7500000 1 1 1
  0.0000000   0.0000000   0.8333333 1 1 1
  0.0833333   0.0833333   0.9166667 1 1 1
  0.0000000   0.1666667   0.6666667 1 1 1
  0.2500000   0.2500000   0.9166667 1 1 1
  0.1666667   0.0000000   0.6666667 1 1 1
  0.2500000   0.0833333   0.7500000 1 1 1
  0.1666667   0.1666667   0.8333333 1 1 1
  0.0833333   0.5833333   0.0833333 1 1 1
  0.0000000   0.3333333   0.1666667 1 1 1
  0.0833333   0.4166667   0.2500000 1 1 1
  0.0000000   0.5000000   0.0000000 1 1 1
  0.2500000   0.5833333   0.2500000 1 1 1
  0.1666667   0.3333333   0.0000000 1 1 1
  0.2500000   0.4166667   0.0833333 1 1 1
  0.1666667   0.5000000   0.1666667 1 1 1
  0.0833333   0.5833333   0.4166667 1 1 1
  0.0000000   0.3333333   0.5000000 1 1 1
  0.0833333   0.4166667   0.5833333 1 1 1
  0.0000000   0.5000000   0.3333333 1 1 1
  0.2500000   0.5833333   0.5833333 1 1 1
  0.1666667   0.3333333   0.3333333 1 1 1
  0.2500000   0.4166667   0.4166667 1 1 1
  0.1666667   0.5000000   0.5000000 1 1 1
  0.0833333   0.5833333   0.7500000 1 1 1
  0.0000000   0.3333333   0.8333333 1 1 1
  0.0833333   0.4166667   0.9166667 1 1 1
  0.0000000   0.5000000   0.6666667 1 1 1
  0.2500000   0.5833333   0.9166667 1 1 1
  0.1666667   0.3333333   0.6666667 1 1 1
  0.2500000   0.4166667   0.7500000 1 1 1
  0.1666667   0.5000000   0.8333333 1 1 1
  0.0833333   0.9166667   0.0833333 1 1 1
  0.0000000   0.6666667   0.1666667 1 1 1
  0.0833333   0.7500000   0.2500000 1 1 1
  0.0000000   0.8333333   0.0000000 1 1 1
  0.2500000   0.9166667   0.2500000 1 1 1
  0.1666667   0.6666667   0.0000000 1 1 1
  0.2500000   0.7500000   0.0833333 1 1 1
  0.1666667   0.8333333   0.1666667 1 1 1
  0.0833333   0.9166667   0.4166667 1 1 1
  0.0000000   0.6666667   0.5000000 1 1 1
  0.0833333   0.7500000   0.5833333 1 1 1
  0.0000000   0.8333333   0.3333333 1 1 1
  0.2500000   0.9166667   0.5833333 1 1 1
  0.1666667   0.6666667   0.3333333 1 1 1
  0.2500000   0.7500000   0.4166667 1 1 1
  0.1666667   0.8333333   0.5000000 1 1 1
  0.0833333   0.9166667   0.7500000 1 1 1
  0.0000000   0.6666667   0.8333333 1 1 1
  0.0833333   0.7500000   0.9166667 1 1 1
  0.0000000   0.8333333   0.6666667 1 1 1
  0.2500000   0.9166667   0.9166667 1 1 1
  0.1666667   0.6666667   0.6666667 1 1 1
  0.2500000   0.7500000   0.7500000 1 1 1
  0.1666667   0.8333333   0.8333333 1 1 1
  0.4166667   0.2500000   0.0833333 1 1 1
  0.3333333   0.0000000   0.1666667 1 1 1
  0.4166667   0.0833333   0.2500000 1 1 1
  0.3333333   0.1666667   0.0000000 1 1 1
  0.5833333   0.2500000   0.2500000 1 1 1
  0.5000000   0.0000000   0.0000000 1 1 1
  0.5833333   0.0833333   0.0833333 1 1 1
  0.5000000   0.1666667   0.1666667 1 1 1
  0.4166667   0.2500000   0.4166667 1 1 1
  0.3333333   0.0000000   0.5000000 1 1 1
  0.4166667   0.0833333   0.5833333 1 1 1
  0.3333333   0.1666667   0.3333333 1 1 1
  0.5833333   0.2500000   0.5833333 1 1 1
  0.5000000   0.0000000   0.3333333 1 1 1
  0.5833333   0.0833333   0.4166667 1 1 1
  0.5000000   0.1666667   0.5000000 1 1 1
  0.4166667   0.2500000   0.7500000 1 1 1
  0.3333333   0.0000000   0.8333333 1 1 1
  0.4166667   0.0833333   0.9166667 1 1 1
  0.3333333   0.1666667   0.6666667 1 1 1
  0.5833333   0.2500000   0.9166667 1 1 1
  0.5000000   0.0000000   0.6666667 1 1 1
  0.5833333   0.0833333   0.7500000 1 1 1
  0.5000000   0.1666667   0.8333333 1 1 1
  0.4166667   0.5833333   0.0833333 1 1 1
  0.3333333   0.3333333   0.1666667 1 1 1
  0.4166667   0.4166667   0.2500000 1 1 1
  0.3333333   0.5000000   0.0000000 1 1 1
  0.5833333   0.5833333   0.2500000 1 1 1
  0.5000000   0.3333333   0.0000000 1 1 1
  0.5833333   0.4166667   0.0833333 1 1 1
  0.5000000   0.5000000   0.1666667 1 1 1
  0.4166667   0.5833333   0.4166667 1 1 1
  0.3333333   0.3333333   0.5000000 1 1 1
  0.4166667   0.4166667   0.5833333 1 1 1
  0.3333333   0.5000000   0.3333333 1 1 1
  0.5833333   0.5833333   0.5833333 1 1 1
  0.5000000   0.3333333   0.3333333 1 1 1
  0.5833333   0.4166667   0.4166667 1 1 1
  0.5000000   0.5000000   0.5000000 1 1 1
  0.4166667   0.5833333   0.7500000 1 1 1
  0.3333333   0.3333333   0.8333333 1 1 1
  0.4166667   0.4166667   0.9166667 1 1 1
  0.3333333   0.5000000   0.6666667 1 1 1
  0.5833333   0.5833333   0.9166667 1 1 1
  0.5000000   0.3333333   0.6666667 1 1 1
  0.5833333   0.4166667   0.7500000 1 1 1
  0.5000000   0.5000000   0.8333333 1 1 1
  0.4166667   0.9166667   0.0833333 1 1 1
  0.3333333   0.6666667   0.1666667 1 1 1
  0.4166667   0.7500000   0.2500000 1 1 1
  0.3333333   0.8333333   0.0000000 1 1 1
  0.5833333   0.9166667   0.2500000 1 1 1
  0.5000000   0.6666667   0.0000000 1 1 1
  0.5833333   0.7500000   0.0833333 1 1 1
  0.5000000   0.8333333   0.1666667 1 1 1
  0.4166667   0.9166667   0.4166667 1 1 1
  0.3333333   0.6666667   0.5000000 1 1 1
  0.4166667   0.7500000   0.5833333 1 1 1
  0.3333333   0.8333333   0.3333333 1 1 1
  0.5833333   0.9166667   0.5833333 1 1 1
  0.5000000   0.6666667   0.3333333 1 1 1
  0.5833333   0.7500000   0.4166667 1 1 1
  0.5000000   0.8333333   0.5000000 1 1 1
  0.4166667   0.9166667   0.7500000 1 1 1
  0.3333333   0.6666667   0.8333333 1 1 1
  0.4166667   0.7500000   0.9166667 1 1 1
  0.3333333   0.8333333   0.6666667 1 1 1
  0.5833333   0.9166667   0.9166667 1 1 1
  0.5000000   0.6666667   0.6666667 1 1 1
  0.5833333   0.7500000   0.7500000 1 1 1
  0.5000000   0.8333333   0.8333333 1 1 1
  0.7500000   0.2500000   0.0833333 1 1 1
  0.6666667   0.0000000   0.1666667 1 1 1
  0.7500000   0.0833333   0.2500000 1 1 1
  0.6666667   0.1666667   0.0000000 1 1 1
  0.9166667   0.2500000   0.2500000 1 1 1
  0.8333333   0.0000000   0.0000000 1 1 1
  0.9166667   0.0833333   0.0833333 1 1 1
  0.8333333   0.1666667   0.1666667 1 1 1
  0.7500000   0.2500000   0.4166667 1 1 1
  0.6666667   0.0000000   0.5000000 1 1 1
  0.7500000   0.0833333   0.5833333 1 1 1
  0.6666667   0.1666667   0.3333333 1 1 1
  0.9166667   0.2500000   0.5833333 1 1 1
  0.8333333   0.0000000   0.3333333 1 1 1
  0.9166667   0.0833333   0.4166667 1 1 1
  0.8333333   0.1666667   0.5000000 1 1 1
  0.7500000   0.2500000   0.7500000 1 1 1
  0.6666667   0.0000000   0.8333333 1 1 1
  0.7500000   0.0833333   0.9166667 1 1 1
  0.6666667   0.1666667   0.6666667 1 1 1
  0.9166667   0.2500000   0.9166667 1 1 1
  0.8333333   0.0000000   0.6666667 1 1 1
  0.9166667   0.0833333   0.7500000 1 1 1
  0.8333333   0.1666667   0.8333333 1 1 1
  0.7500000   0.5833333   0.0833333 1 1 1
  0.6666667   0.3333333   0.1666667 1 1 1
  0.7500000   0.4166667   0.2500000 1 1 1
  0.6666667   0.5000000   0.0000000 1 1 1
  0.9166667   0.5833333   0.2500000 1 1 1
  0.8333333   0.3333333   0.0000000 1 1 1
  0.9166667   0.4166667   0.0833333 1 1 1
  0.8333333   0.5000000   0.1666667 1 1 1
  0.7500000   0.5833333   0.4166667 1 1 1
  0.6666667   0.3333333   0.5000000 1 1 1
  0.7500000   0.4166667   0.5833333 1 1 1
  0.6666667   0.5000000   0.3333333 1 1 1
  0.9166667   0.5833333   0.5833333 1 1 1
  0.8333333   0.3333333   0.3333333 1 1 1
  0.9166667   0.4166667   0.4166667 1 1 1
  0.8333333   0.5000000   0.5000000 1 1 1
  0.7500000   0.5833333   0.7500000 1 1 1
  0.6666667   0.3333333   0.8333333 1 1 1
  0.7500000   0.4166667   0.9166667 1 1 1
  0.6666667   0.5000000   0.6666667 1 1 1
  0.9166667   0.5833333   0.9166667 1 1 1
  0.8333333   0.3333333   0.6666667 1 1 1
  0.9166667   0.4166667   0.7500000 1 1 1
  0.8333333   0.5000000   0.8333333 1 1 1
  0.7500000   0.9166667   0.0833333 1 1 1
  0.6666667   0.6666667   0.1666667 1 1 1
  0.7500000   0.7500000   0.2500000 1 1 1
  0.6666667   0.8333333   0.0000000 1 1 1
  0.9166667   0.9166667   0.2500000 1 1 1
  0.8333333   0.6666667   0.0000000 1 1 1
  0.9166667   0.7500000   0.0833333 1 1 1
  0.8333333   0.8333333   0.1666667 1 1 1
  0.7500000   0.9166667   0.4166667 1 1 1
  0.6666667   0.6666667   0.5000000 1 1 1
  0.7500000   0.7500000   0.5833333 1 1 1
  0.6666667   0.8333333   0.3333333 1 1 1
  0.9166667   0.9166667   0.5833333 1 1 1
  0.8333333   0.6666667   0.3333333 1 1 1
  0.9166667   0.7500000   0.4166667 1 1 1
  0.8333333   0.8333333   0.5000000 1 1 1
  0.7500000   0.9166667   0.7500000 1 1 1
  0.6666667   0.6666667   0.8333333 1 1 1
  0.7500000   0.7500000   0.9166667 1 1 1
  0.6666667   0.8333333   0.6666667 1 1 1
  0.9166667   0.9166667   0.9166667 1 1 1
  0.8333333   0.6666667   0.6666667 1 1 1
  0.9166667   0.7500000   0.7500000 1 1 1
  0.8333333   0.8333333   0.8333333 1 1 1

