ATOMIC_SPECIES
Si 28.085 Si_ONCV_PBE-1.0.upf upf201
C 12.011 C_ONCV_PBE-1.0.upf upf201

NUMERICAL_ORBITAL
Si_gga_9au_100Ry_3s3p2d.orb
C_gga_9au_100Ry_3s3p2d.orb

LATTICE_CONSTANT
1.88972612546

LATTICE_VECTORS
9.3273911781 0 0 #latvec1
-4.45411166356 8.16125560825 0 #latvec2
-0.0652326176945 0.00342421386836 9.90815265162 #latvec3

ATOMIC_POSITIONS
Cartesian

Si #label
0 #magnetism
36 #number of atoms
0.0127867735293  1.77021229045  2.51141205629  m  1  1  1  v  2.08222112447e-05  -5.34848695057e-06  1.34555746122e-05
3.15421388784  7.0543577147  2.53395396325  m  1  1  1  v  8.80550339023e-06  -1.47003972316e-05  2.75078094137e-05
-2.97796618219  7.13074241296  2.50281869856  m  1  1  1  v  -5.13704579227e-05  1.41017324051e-05  -1.22500325592e-05
4.66169121914  6.14860856127  5.0437818407  m  1  1  1  v  5.06210832341e-05  -5.44693153308e-05  3.69179263889e-06
1.5263795109  0.87108809299  5.0431250919  m  1  1  1  v  1.45510166814e-05  3.88272604189e-05  -2.83786180457e-05
7.6744726723  0.791193066955  5.05525477693  m  1  1  1  v  3.19016495298e-07  -5.67690194237e-06  5.60940028368e-06
0.00391214808381  1.76997073614  7.56465300445  m  1  1  1  v  -3.59402677604e-05  -4.7374172969e-06  -8.39284815119e-07
3.13582500542  7.04935790622  7.56264724429  m  1  1  1  v  2.41853717426e-05  2.49994627707e-05  -4.10585253683e-05
-3.00314038018  7.13821318503  7.54530589715  m  1  1  1  v  4.91735204922e-05  1.34704857126e-05  -2.21277793633e-06
4.7089686541  6.14366336476  0.182244219216  m  1  1  1  v  4.51656259477e-06  -1.56630651859e-05  2.29569199702e-05
1.57986924328  0.866520712391  0.169948619077  m  1  1  1  v  -3.60673516164e-06  4.31457733531e-05  -7.86229155721e-06
7.71556231163  0.787232756521  0.185956184796  m  1  1  1  v  1.52729539727e-05  -3.04159189209e-05  -2.5113218204e-05
-1.48820027516  4.44639843607  2.51631417452  m  1  1  1  v  -6.1575338024e-06  -1.85475888336e-05  -2.91298305641e-05
1.58022497419  4.42784042161  2.52881447452  m  1  1  1  v  6.82219232602e-06  2.35216016119e-05  -9.81867343464e-06
0.0985290060704  7.0860420558  2.52088564578  m  1  1  1  v  -9.31283028812e-06  -1.4861185074e-05  -4.55236308994e-05
6.16766411076  3.47214580937  5.06666299386  m  1  1  1  v  -1.31307426207e-07  -1.28883568417e-05  3.20378699329e-05
3.08852776733  3.50547725505  5.0476154186  m  1  1  1  v  -3.57207413218e-06  5.65397935133e-05  -1.06519198904e-06
4.59860873346  0.83057496919  5.04617777012  m  1  1  1  v  -2.18821980159e-05  7.66364199516e-07  1.65814596405e-05
-1.50422062057  4.44694795919  7.52970044689  m  1  1  1  v  6.00738108406e-07  7.63174208248e-06  -2.47717324543e-05
1.5773497121  4.41598976523  7.55998747701  m  1  1  1  v  1.7587874155e-05  3.70421200359e-05  -3.70673936403e-05
0.0756590416896  7.09252035036  7.54894489721  m  1  1  1  v  5.3533948387e-06  -1.94670914353e-05  -6.11241697166e-06
6.21252481246  3.4582312818  0.178468966794  m  1  1  1  v  1.8244697657e-05  2.82925424105e-05  -1.48488975351e-05
3.14334402196  3.49709777393  0.174517765482  m  1  1  1  v  -1.37193485462e-05  1.24263692237e-05  -2.94349873755e-05
4.6544077995  0.827434847622  0.164330814906  m  1  1  1  v  2.66233922009e-05  1.69441610939e-05  5.69915681345e-07
3.08399667968  1.73337730212  2.51678366082  m  1  1  1  v  2.58302585565e-06  2.65374634387e-05  -4.88169442525e-06
6.14803106542  1.69555107941  2.52855490266  m  1  1  1  v  1.23301498859e-05  -6.6101623716e-06  2.91507443929e-05
4.6492722304  4.37061228736  2.53199279642  m  1  1  1  v  -7.94985273518e-07  1.85029206306e-05  -4.40263366491e-06
1.60102325481  6.18940033849  5.03645110673  m  1  1  1  v  -4.57363578911e-05  5.29439844793e-05  -2.59179792814e-05
-1.4643723584  6.2341056549  5.01438029015  m  1  1  1  v  1.28455016267e-05  -3.38609726261e-05  2.37431330036e-05
0.0254271827955  3.55105476757  5.03555416101  m  1  1  1  v  -2.49032512124e-05  -3.9395597677e-06  -4.0296572377e-05
3.06553254551  1.73153872424  7.56857989589  m  1  1  1  v  -2.88074898566e-05  -1.177375606e-05  3.40952242417e-05
6.1478929073  1.69708435011  7.57696337013  m  1  1  1  v  -6.10086977136e-05  2.73674370865e-06  3.91217072301e-05
4.62879361252  4.36996224188  7.56931552854  m  1  1  1  v  3.16797747136e-05  -2.13812044224e-05  3.20890412082e-05
1.63742527744  6.184816972  0.162651535909  m  1  1  1  v  -2.54901981885e-05  -1.6014034434e-05  -2.73751988562e-05
-1.41865877144  6.22227366989  0.166231692642  m  1  1  1  v  5.05569824879e-06  -3.46447231809e-05  -1.99980436516e-05
0.0798614036866  3.53869087408  0.148274564923  m  1  1  1  v  4.44762661357e-06  -5.48247991553e-06  4.95554440045e-06

C #label
0 #magnetism
36 #number of atoms
0.00714358483927  1.77285710912  4.40059852912  m  1  1  1  v  -3.45923957259e-05  2.31947392564e-05  -2.78639326482e-05
3.13898428557  7.06454564036  4.4238250944  m  1  1  1  v  -6.29539355816e-06  -2.27555423688e-05  -2.3092418558e-05
-2.97740978473  7.13891124339  4.3998397421  m  1  1  1  v  2.49761263203e-05  2.88595732134e-05  9.06693765834e-07
4.66535348225  6.13346893912  6.93595134955  m  1  1  1  v  1.28495588891e-06  3.02695879223e-05  4.78883536891e-05
1.52205587682  0.870342108083  6.9307896869  m  1  1  1  v  -6.00497084141e-06  -2.85653333107e-05  -8.24729123228e-06
7.65999623118  0.792191662169  6.96231975323  m  1  1  1  v  4.3819650622e-05  2.05454783474e-05  5.7519950912e-05
-0.0123040933636  1.78871920077  9.44457288683  m  1  1  1  v  6.4663973941e-06  -4.42216575238e-05  -4.57011079404e-05
3.12224214322  7.03996879954  9.45368257709  m  1  1  1  v  -2.15743502958e-05  -7.66476759401e-05  2.7788686913e-05
-3.00311129108  7.12597453548  9.43452733849  m  1  1  1  v  7.94339240274e-05  -4.84710844697e-05  9.5541151639e-06
4.67052809914  6.13766666384  1.9189513234  m  1  1  1  v  -3.2330166362e-05  1.09733071286e-05  6.07247172409e-05
1.53810894551  0.870270014911  1.88901469709  m  1  1  1  v  4.08331703428e-07  4.2447731878e-05  5.07380830409e-05
7.68874913186  0.797034474477  1.92393632161  m  1  1  1  v  1.99204204328e-05  6.17470375692e-06  3.61194500694e-07
-1.49856325325  4.44496905166  4.40285869831  m  1  1  1  v  7.41341011426e-05  2.11513898427e-06  -1.56532505777e-05
1.58514082655  4.39990906047  4.41563296074  m  1  1  1  v  5.82099065719e-06  3.25707082865e-05  -5.10475635618e-05
0.0829008954629  7.0915880542  4.41126286195  m  1  1  1  v  1.64812962036e-05  -4.67928482166e-05  4.29393618875e-05
6.15932370869  3.46956036365  6.94737928729  m  1  1  1  v  -4.86064611245e-05  -2.46948308442e-05  -4.62065171308e-05
3.08098998339  3.50385411733  6.93017233912  m  1  1  1  v  -3.26664090176e-05  1.13089011225e-05  -4.85603418362e-05
4.61043419068  0.828578196787  6.93506103026  m  1  1  1  v  1.78975427945e-05  3.88426838035e-06  1.68082798518e-05
-1.50939623809  4.45557753702  9.43926395907  m  1  1  1  v  -7.5791436763e-05  1.77636280098e-05  1.11371367816e-05
1.56487928235  4.41220101002  9.43984385263  m  1  1  1  v  -3.07957605584e-05  -2.59671471023e-05  9.34355141043e-05
0.0594002655162  7.09797531481  9.43950956085  m  1  1  1  v  1.84011013175e-05  5.91290742065e-07  -1.9088776954e-05
6.17244700787  3.45879630791  1.91305878518  m  1  1  1  v  2.86626021822e-05  -6.24158857762e-05  3.97885790174e-05
3.10988914184  3.49689597333  1.90980547643  m  1  1  1  v  1.67668790751e-05  -1.5952689281e-05  7.71966184706e-05
4.60385284436  0.815496825535  1.89756514781  m  1  1  1  v  -1.52391268922e-05  -3.50497059733e-06  -7.72180734408e-05
3.08250764104  1.72969832532  4.41451115066  m  1  1  1  v  1.49619373817e-05  -3.02222885472e-05  2.47818291774e-06
6.14518055277  1.69127684113  4.42624934504  m  1  1  1  v  -2.4602340928e-05  -2.54120505301e-05  6.37272349724e-05
4.66289212399  4.36597588468  4.43001458331  m  1  1  1  v  4.75924329625e-05  4.70840044982e-05  -2.23257699486e-05
1.60093439874  6.1872106543  6.92846186182  m  1  1  1  v  -4.93671056398e-05  5.65543139957e-05  5.98335135065e-05
-1.48125559434  6.20798274677  6.91838643811  m  1  1  1  v  3.89978628582e-05  -3.1159385664e-05  2.32768776533e-05
0.0141623839899  3.53917202575  6.92431148591  m  1  1  1  v  -3.89061135847e-05  2.41624980458e-05  7.0394117947e-06
3.04836852869  1.724666503  9.45894307028  m  1  1  1  v  2.3461407892e-05  -4.56840597088e-05  6.14269478324e-07
6.11861284535  1.69355549124  9.46155654379  m  1  1  1  v  -4.13939429452e-05  -1.0535026747e-05  1.99978088189e-05
4.63114932514  4.37550779403  9.45484292575  m  1  1  1  v  3.34761223275e-06  -2.0306499026e-05  -3.42453865083e-05
1.6082070219  6.18226943332  1.8982794916  m  1  1  1  v  -1.90023527478e-05  6.25243107546e-05  6.97428300338e-05
-1.45061395226  6.22092136168  1.90151341466  m  1  1  1  v  3.04790471808e-05  -4.47570255169e-05  3.52521851059e-05
0.0450148586189  3.53858147593  1.90304417493  m  1  1  1  v  -3.61640007638e-05  -1.8604412712e-05  -4.22262413575e-05
