ATOMIC_SPECIES
Si 28.085 Si_ONCV_PBE-1.0.upf
C 12.011 C_ONCV_PBE-1.0.upf

LATTICE_CONSTANT
1.8897261254578281

LATTICE_VECTORS
8.499986470753806 0.0 0.0 
-0.15379013603787378 8.84829749463803 0.0 
0.17846263372519316 -0.047580266518617326 8.651413306824226 

ATOMIC_POSITIONS
Cartesian    # Cartesian(Unit is LATTICE_CONSTANT)
Si
0.0
32
3.288712795604 1.109419837391 3.230441334799 1 1 1
3.333809960350 1.099919120502 7.581057159050 1 1 1
3.250675541929 5.454305345751 3.235490853127 1 1 1
3.289496767721 5.435480718805 7.589229604915 1 1 1
7.633876245413 1.144505124464 3.189344248052 1 1 1
7.675107029105 1.142908181254 7.534938632021 1 1 1
7.593219623270 5.497742303556 3.201748443348 1 1 1
7.646110635093 5.485530707039 7.548614048248 1 1 1
3.249597985927 3.292688417779 1.058685566414 1 1 1
3.282416921101 3.280300187036 5.411028652738 1 1 1
3.207287242439 7.629182847177 1.079590675186 1 1 1
3.250365944628 7.630236351791 5.416997988295 1 1 1
7.590858622938 3.318307942682 1.014996202445 1 1 1
7.643989509229 3.311563954424 5.362298565443 1 1 1
7.560548976680 7.671227014807 1.025213096254 1 1 1
7.590499549630 7.656528980010 5.375733715321 1 1 1
1.082923563464 1.098517256691 1.071645114008 1 1 1
1.136553526310 1.080994893129 5.431389716148 1 1 1
1.048834244648 5.443033231906 1.093437448871 1 1 1
1.097258548302 5.429783448616 5.438226731294 1 1 1
5.436486870945 1.140925656308 1.035078749145 1 1 1
5.481642112395 1.124431950698 5.381093094051 1 1 1
5.398621248904 5.471461689120 1.050060642970 1 1 1
5.438271658577 5.465861171777 5.400443167402 1 1 1
1.085895545247 3.263538807926 3.259945398943 1 1 1
1.130185708808 3.251724007749 7.613842953309 1 1 1
1.060929174660 7.610316267453 3.266415826814 1 1 1
1.096009362555 7.585674987018 7.624825955489 1 1 1
5.443684540964 3.291469491292 3.209647055089 1 1 1
5.488354755298 3.294428727588 7.561484731652 1 1 1
5.404484629983 7.646528782165 3.212662080961 1 1 1
5.441763166734 7.637542349498 7.580335349291 1 1 1
C
0.0
32
8.697933617596 0.077138765140 -0.080480918450 1 1 1
8.738568568089 0.066146458236 4.252393353632 1 1 1
8.665584629826 4.412426232685 -0.081064227776 1 1 1
8.703938276058 4.418073492701 4.272919077754 1 1 1
4.356573865820 0.037196986926 -0.046128165399 1 1 1
4.401785291041 0.020061844794 4.305915111546 1 1 1
4.308843433394 4.381909575333 -0.035898558301 1 1 1
4.349877747687 4.370494058128 4.311593265153 1 1 1
8.684681572120 2.256331581117 2.088349374367 1 1 1
8.745410720344 2.229576498212 6.442674945767 1 1 1
8.659722596804 6.597854185557 2.097991435895 1 1 1
8.707741914594 6.582275592554 6.446070440922 1 1 1
4.360182116980 2.208030110356 2.146645853272 1 1 1
4.400285205571 2.193150165517 6.479889613770 1 1 1
4.321656345227 6.548575247774 2.143464767100 1 1 1
4.355122311837 6.541010871370 6.492885594535 1 1 1
2.195980188303 0.015143476837 2.150614175562 1 1 1
2.231887304990 -0.000588003272 6.503115972301 1 1 1
2.163276337426 4.351372464516 2.162180014823 1 1 1
2.200126302285 4.344617242239 6.505128661847 1 1 1
6.537990426168 0.051739991862 2.105787836390 1 1 1
6.594955786916 0.026612396495 6.454749239794 1 1 1
6.502926418337 4.403853831010 2.126583917908 1 1 1
6.547337234118 4.380858775820 6.469588887079 1 1 1
2.154286957110 2.193244524499 -0.016309099161 1 1 1
2.198473448485 2.177899891725 4.333470556484 1 1 1
2.118396624528 6.536920509375 0.000885229309 1 1 1
2.154852196560 6.531482807713 4.338052799843 1 1 1
6.505820535945 2.229689023126 -0.070757122030 1 1 1
6.550916182437 2.219710538605 4.286277821866 1 1 1
6.465909727180 6.573795659178 -0.040940152830 1 1 1
6.514816425809 6.562224595613 4.303218573822 1 1 1

NUMERICAL_ORBITAL
Si_gga_9au_100Ry_3s3p2d.orb
C_gga_9au_100Ry_3s3p2d.orb
