ATOMIC_SPECIES
Si 28.085 Si_ONCV_PBE-1.0.upf upf201
C 12.011 C_ONCV_PBE-1.0.upf upf201

NUMERICAL_ORBITAL
Si_gga_9au_100Ry_3s3p2d.orb
C_gga_9au_100Ry_3s3p2d.orb

LATTICE_CONSTANT
1.88972612546

LATTICE_VECTORS
8.56738496863 0 0 #latvec1
-0.118220556138 8.55770391612 0 #latvec2
-0.181335867257 -0.0969780046403 8.59144405002 #latvec3

ATOMIC_POSITIONS
Cartesian

Si #label
0 #magnetism
32 #number of atoms
3.25340445501  1.09082526709  3.33561852028  m  1  1  1  v  3.52119582957e-05  -5.46947332666e-05  1.06516137153e-05
3.20134819163  1.09404644861  7.70770216333  m  1  1  1  v  -4.236733151e-05  0.000127484783105  2.11080345184e-05
3.21128363732  5.50073133692  3.35246917083  m  1  1  1  v  8.00232431366e-05  -0.000100863832  5.58096352527e-05
3.17113077814  5.48262563798  7.75517565716  m  1  1  1  v  -0.000183337013972  6.95925355742e-05  -1.13573031001e-05
7.63465977162  1.13188949712  3.37729277795  m  1  1  1  v  -7.16250580794e-05  -2.01681270076e-05  5.39388095877e-06
7.59476685408  1.12014463581  7.78412989583  m  1  1  1  v  3.06207756556e-05  -2.0712705409e-05  -9.92359698467e-06
7.59412623318  5.52513645478  3.43199694535  m  1  1  1  v  -0.00011133124227  -7.6898794872e-05  0.000107512819656
7.57935859683  5.49746307446  7.76025304386  m  1  1  1  v  0.000170801097233  0.000119836938398  -0.000178737920515
3.25128025924  3.29265030747  1.18046093537  m  1  1  1  v  -0.000167196620303  -0.000163236512641  -2.39183635338e-05
3.21314032249  3.29662256371  5.54412245811  m  1  1  1  v  -5.94293053897e-06  -4.63845851169e-05  7.74870104681e-06
3.2315154218  7.70694022439  1.18598903365  m  1  1  1  v  -0.000140864472599  -7.56010083846e-05  0.000174646548916
3.19086820295  7.67492759798  5.54233816032  m  1  1  1  v  7.47782249697e-05  -9.18700180192e-05  6.05217524889e-05
7.6419562752  3.35479498275  1.17967302861  m  1  1  1  v  -7.75869210686e-05  2.13896708675e-05  -4.2152604169e-05
7.59954066126  3.29567394078  5.59580693807  m  1  1  1  v  -3.87635076004e-05  8.8706561132e-05  1.8567462222e-05
7.60987051976  7.72179919788  1.23474835153  m  1  1  1  v  6.85244837265e-06  -4.42552712334e-05  -1.72316603623e-06
7.58632327741  7.69571602546  5.63806565122  m  1  1  1  v  -3.28524183383e-06  2.72188770253e-05  -6.28798684169e-05
1.08870480053  1.11565921941  1.12080678716  m  1  1  1  v  0.000138738466168  0.000258225336163  0.000158019263719
1.04549614562  1.09317777456  5.51496381106  m  1  1  1  v  1.96134527915e-05  0.000229122270219  1.83772414711e-05
1.06119665587  5.5088818884  1.15541100558  m  1  1  1  v  -0.000128547455961  3.27194141056e-05  9.00143252083e-05
1.02556414788  5.46650352754  5.55078997265  m  1  1  1  v  -0.000148696379652  4.09689127109e-05  1.13134990995e-05
5.45267305574  1.12143581739  1.1672628861  m  1  1  1  v  4.01830354344e-05  -9.2488840713e-05  -4.52417088125e-06
5.43661852693  1.11683349152  5.54278916551  m  1  1  1  v  -2.82438949982e-05  -1.71975394848e-05  -5.87467767166e-05
5.42075724698  5.50101227738  1.17024227388  m  1  1  1  v  1.76843805781e-05  -7.58594242125e-05  -3.47501338533e-05
5.40948072797  5.53899606338  5.57513158828  m  1  1  1  v  -5.04226055893e-05  0.000106894923526  4.43416953407e-05
1.0401584467  3.29409874827  3.33278093773  m  1  1  1  v  2.71703162339e-05  0.000185337328003  7.40066552443e-05
1.00806772881  3.28090089491  7.72434312015  m  1  1  1  v  -1.95361827514e-06  -3.2372266773e-05  -0.000136394750187
1.00726448694  7.67212082623  3.35105161589  m  1  1  1  v  -3.60842145275e-05  -3.28978205996e-05  -0.000109992524407
0.993114974959  7.64493950556  7.74211048985  m  1  1  1  v  5.08405135027e-05  -5.93389734928e-05  3.5912183462e-05
5.43468671681  3.29972942294  3.37101669302  m  1  1  1  v  7.02188972335e-07  2.55775818601e-05  -0.000152652910793
5.38178301867  3.28695670054  7.74160488182  m  1  1  1  v  5.07280704027e-05  5.25479615714e-05  -0.000168510838262
5.40625813478  7.71086536921  3.39629312339  m  1  1  1  v  5.82724357482e-05  1.2349590236e-05  -1.15586467186e-05
5.34048651957  7.66452631021  7.78010201426  m  1  1  1  v  3.71264107428e-05  -0.000232711172858  -0.000104189426057

C #label
0 #magnetism
32 #number of atoms
0.212539653234  0.0910751588799  0.102031088095  m  1  1  1  v  -0.000149956364345  0.000109518025244  0.000200298371597
0.157731339443  0.0564299488101  4.47443887212  m  1  1  1  v  0.000136101563733  7.76325106312e-05  -7.48834721019e-05
0.173615779874  4.45332545706  0.133379557245  m  1  1  1  v  -0.000130783370029  -8.53940341803e-05  -0.000125801171102
0.116500308258  4.43302963179  4.50194486039  m  1  1  1  v  -7.42424445879e-05  -0.000155894110587  6.09927548058e-05
4.39750549795  0.0494282814632  0.0465009260375  m  1  1  1  v  -0.000139443162247  0.000249377000007  0.000251095965564
4.36472288459  0.0258774836563  4.45242479254  m  1  1  1  v  1.76790890832e-05  -9.20490926651e-05  7.21861460724e-05
4.36616856313  4.41588620081  0.0808600237542  m  1  1  1  v  -0.000231528115886  -0.000191171497247  -0.000145978024178
4.32031250455  4.39395773904  4.47355580513  m  1  1  1  v  -0.000124945063526  0.000291554812534  0.000175037891966
0.166473635348  2.24002025763  2.30671541862  m  1  1  1  v  -0.000101175859793  -4.19612919235e-05  -0.00014413243998
0.118013625727  2.21630927296  6.69487546905  m  1  1  1  v  -0.000133731010993  4.7239268908e-05  -6.0920031398e-05
0.110096141021  6.60723068707  2.30756813475  m  1  1  1  v  -0.000178924443502  1.35666147713e-05  7.87751442887e-05
0.111241656236  6.60092970595  6.69601593108  m  1  1  1  v  -7.87409523265e-05  -0.00011982783429  8.16779336611e-05
4.33267282546  2.19940444966  2.25205016078  m  1  1  1  v  6.52094854326e-05  -0.000101070797523  0.000156866472751
4.32375481662  2.20969055139  6.62441118073  m  1  1  1  v  -0.000122765478487  -0.000104969981143  -0.000277449547486
4.33137946892  6.58893377817  2.27079600582  m  1  1  1  v  2.87395433909e-05  -0.000216823735768  0.000220060084859
4.26391645918  6.5893166087  6.66907297052  m  1  1  1  v  -0.000174268731093  -0.000225259205771  -0.000350538812242
2.18474469209  0.0169518637097  2.22566492139  m  1  1  1  v  -5.27203196958e-05  2.98129926365e-06  -0.000143880866814
2.10672590284  0.0140549149105  6.61440815923  m  1  1  1  v  0.000114610283672  0.000200275744664  -0.000246027856106
2.13146517161  4.37539880525  2.256751918  m  1  1  1  v  -8.6164067028e-05  -0.000208031475771  0.000163709307013
2.115587452  4.37227312627  6.62260864062  m  1  1  1  v  -0.000172658274442  0.000105089695018  -5.83621536157e-05
6.56359282464  0.0623080376018  2.27937250902  m  1  1  1  v  -0.000114326170132  0.000103184000116  -3.32404885277e-05
6.5267284611  0.0101304038289  6.64791857534  m  1  1  1  v  -1.55538366606e-05  0.000182348778863  -3.63288955394e-05
6.53388083658  4.40570872267  2.27334103186  m  1  1  1  v  0.000149584664914  9.86044985829e-05  -0.000117736734065
6.48200694276  4.38657369508  6.68766925418  m  1  1  1  v  -4.42746902487e-05  0.000336395382799  0.000116186263943
2.17718310731  2.20802362819  0.0292229883283  m  1  1  1  v  8.59966972938e-05  3.40225525094e-07  5.24221907624e-05
2.14335296334  2.19187322661  4.41410662323  m  1  1  1  v  -9.5514441989e-05  -0.000194671571978  9.27251628875e-05
2.16331642297  6.59792297758  0.0762655254183  m  1  1  1  v  -4.55812670432e-05  7.2647469137e-05  5.85579114486e-05
2.10881003028  6.57407688738  4.43554376261  m  1  1  1  v  0.000126633825754  0.000115840149384  8.56283971735e-05
6.56886654367  2.23844713318  0.093715607972  m  1  1  1  v  -8.65157405406e-05  -1.70731325253e-05  0.000291208776821
6.52495058034  2.20697798468  4.46417443653  m  1  1  1  v  8.16097226611e-05  -0.000165635153566  -4.84976024165e-05
6.54821102406  6.63738673867  0.127685574035  m  1  1  1  v  1.28883806758e-05  2.10706888983e-05  1.41393321138e-05
6.51722462497  6.61551147955  4.49898825333  m  1  1  1  v  -3.13633343667e-05  4.65271078473e-05  2.53208353853e-05
