ATOMIC_SPECIES
Si 28.085 Si_ONCV_PBE-1.0.upf upf201
C 12.011 C_ONCV_PBE-1.0.upf upf201

NUMERICAL_ORBITAL
Si_gga_9au_100Ry_3s3p2d.orb
C_gga_9au_100Ry_3s3p2d.orb

LATTICE_CONSTANT
1.88972612546

LATTICE_VECTORS
8.56738496863 0 0 #latvec1
-0.118220556138 8.55770391612 0 #latvec2
-0.181335867257 -0.0969780046403 8.59144405002 #latvec3

ATOMIC_POSITIONS
Cartesian

Si #label
0 #magnetism
32 #number of atoms
3.2572711246  1.09379818804  3.33370933711  m  1  1  1  v  2.01770079589e-05  -6.57608105145e-06  1.39095932127e-05
3.19903733092  1.08569548189  7.71099604013  m  1  1  1  v  8.30615591861e-06  -1.58144801691e-05  2.77912654796e-05
3.21756679782  5.50509304108  3.35176468142  m  1  1  1  v  -5.11394045277e-05  1.26380563744e-05  -1.14840056858e-05
3.18055976155  5.48012780706  7.75489939487  m  1  1  1  v  4.96141886441e-05  -5.51006930217e-05  4.26432159899e-06
7.63806735901  1.12269199403  3.38652504511  m  1  1  1  v  1.3981931597e-05  3.70634720726e-05  -2.74168264091e-05
7.59587823384  1.12547028995  7.79585633114  m  1  1  1  v  -7.73241070022e-08  -6.90050982369e-06  6.15865379865e-06
7.59837204763  5.52351963306  3.42985348363  m  1  1  1  v  -3.58965021797e-05  -5.97242840941e-06  -2.11758762705e-07
7.57751821694  5.48551932221  7.77001739412  m  1  1  1  v  2.34993472503e-05  2.34035127965e-05  -3.99428281672e-05
3.26196895755  3.30213436933  1.17449726347  m  1  1  1  v  4.81841960591e-05  1.20144715974e-05  -1.56858076568e-06
3.21023953552  3.29713863278  5.55339117996  m  1  1  1  v  4.06927322086e-06  -1.6765463499e-05  2.32956136015e-05
3.23685523522  7.71579244779  1.18336881383  m  1  1  1  v  -3.95542596574e-06  4.13295679698e-05  -7.14952199395e-06
3.18907514503  7.68447012077  5.54316265526  m  1  1  1  v  1.46951061928e-05  -3.1339250761e-05  -2.41910611794e-05
7.6458734263  3.3544161111  1.17349509759  m  1  1  1  v  -6.47526364639e-06  -1.96149755154e-05  -2.81589208966e-05
7.60262463376  3.29362484131  5.59909845417  m  1  1  1  v  6.34691779131e-06  2.19435895493e-05  -9.08215779425e-06
7.60847478362  7.72839444681  1.23705685809  m  1  1  1  v  -9.59226192736e-06  -1.59733164086e-05  -4.43537373568e-05
7.57855954453  7.7012816325  5.63633173857  m  1  1  1  v  -5.22182108639e-07  -1.40244338753e-05  3.22663412498e-05
1.08030133272  1.10333239016  1.11012806282  m  1  1  1  v  -3.92118564325e-06  5.45610148414e-05  -4.34923931481e-07
1.04404142797  1.07958703794  5.5047776958  m  1  1  1  v  -2.20090657927e-05  -5.3545044529e-07  1.69975370252e-05
1.05686521945  5.50550248712  1.14412464252  m  1  1  1  v  2.00978039164e-07  6.24659718675e-06  -2.38537202989e-05
1.02480190582  5.4545107668  5.54134866383  m  1  1  1  v  1.69819284491e-05  3.52999992801e-05  -3.60001398044e-05
5.45089710057  1.12719315024  1.17140051416  m  1  1  1  v  4.89594820294e-06  -2.0523317423e-05  -5.42088695133e-06
5.43570003088  1.10845465646  5.54197832315  m  1  1  1  v  1.76307795907e-05  2.66566218539e-05  -1.40513262844e-05
5.42015369118  5.50622567225  1.16867117879  m  1  1  1  v  -1.39452949617e-05  1.09830283351e-05  -2.84603737904e-05
5.41649141319  5.53387812897  5.58228436255  m  1  1  1  v  2.5907775622e-05  1.544598437e-05  1.18033720827e-06
1.03249661547  3.29070586924  3.32154048694  m  1  1  1  v  2.15920527027e-06  2.49228455946e-05  -4.20510260939e-06
1.00155793389  3.27606893892  7.71948901457  m  1  1  1  v  1.17880211309e-05  -7.82244256971e-06  2.94142589223e-05
1.00863029045  7.67114053806  3.34583143999  m  1  1  1  v  -1.17780439914e-06  1.69858240707e-05  -3.73185656953e-06
0.981196332915  7.65587062045  7.74977973483  m  1  1  1  v  -4.55736898023e-05  5.10088508439e-05  -2.49860542668e-05
5.43016091307  3.29959188774  3.36913756187  m  1  1  1  v  1.22971176603e-05  -3.47424892603e-05  2.40722837765e-05
5.38089227258  3.28264757347  7.75127887155  m  1  1  1  v  -2.49934501961e-05  -5.18425507666e-06  -3.9190123572e-05
5.40490969419  7.70966201371  3.39759139478  m  1  1  1  v  -2.88503001617e-05  -1.29233618409e-05  3.42987239032e-05
5.34349202838  7.66890277444  7.78589534071  m  1  1  1  v  -6.06606577587e-05  1.41101308693e-06  3.926419669e-05

C #label
0 #magnetism
32 #number of atoms
0.230773282406  0.0811642399076  0.0948198261487  m  1  1  1  v  5.14033805791e-05  -3.53975179349e-05  5.01615598597e-05
0.172363825567  0.0465767116944  4.48248407039  m  1  1  1  v  -3.49564946104e-05  -2.72899728935e-05  -3.96639917282e-05
0.196431319839  4.46169557413  0.135704373925  m  1  1  1  v  1.11855563644e-05  -5.54331374466e-05  -2.85202011965e-05
0.141354762265  4.44111183983  4.50740989973  m  1  1  1  v  1.02670149018e-05  -1.13812066724e-05  9.17421495083e-06
4.40038615851  0.0320727825424  0.0363756645495  m  1  1  1  v  -3.4564990281e-05  2.16206945678e-05  -2.69083881351e-05
4.35836923941  0.0099413747344  4.44447390965  m  1  1  1  v  -6.61145009469e-06  -2.37718539561e-05  -2.21947894974e-05
4.37499654728  4.42168204689  0.0768234368686  m  1  1  1  v  2.42805038455e-05  2.72167701778e-05  1.51302756405e-06
4.31889898973  4.38660477888  4.48098342092  m  1  1  1  v  8.7689095425e-07  2.86096704786e-05  4.79244357726e-05
0.181211649968  2.24465367558  2.31050284953  m  1  1  1  v  -6.32455245672e-06  -2.95111270991e-05  -7.52984863861e-06
0.131062948754  2.22338096586  6.69666624546  m  1  1  1  v  4.28953101311e-05  1.90035897295e-05  5.74391270615e-05
0.126858704959  6.61443014388  2.31667161344  m  1  1  1  v  5.99544140987e-06  -4.4977418739e-05  -4.45290602256e-05
0.118847102227  6.6155080367  6.70911978905  m  1  1  1  v  -2.17049546518e-05  -7.70098582005e-05  2.80687337577e-05
4.33645719577  2.19504212504  2.24702493452  m  1  1  1  v  7.8077306335e-05  -4.91752671965e-05  1.00554887098e-05
4.32339015429  2.19506372315  6.63209275562  m  1  1  1  v  -3.2330219295e-05  9.54760314657e-06  6.06049947329e-05
4.33905140826  6.60009311962  2.28070675731  m  1  1  1  v  1.09070153235e-08  4.06399991487e-05  5.07395758176e-05
4.26201190268  6.58921286075  6.67997733483  m  1  1  1  v  1.92861628598e-05  4.80724403036e-06  9.74149433452e-07
2.18747979225  0.00274307103749  2.23480169381  m  1  1  1  v  7.28418113835e-05  7.96953246256e-07  -1.48459162896e-05
2.10729799376  -0.00453889452302  6.61286340796  m  1  1  1  v  5.35786845957e-06  3.08828604155e-05  -4.98106218971e-05
2.1344010374  4.37949294292  2.25526777259  m  1  1  1  v  1.5888781866e-05  -4.7517400958e-05  4.30355136038e-05
2.10280219378  4.36992977499  6.6295076434  m  1  1  1  v  -4.84089564358e-05  -2.56876038298e-05  -4.50283348848e-05
6.56556303646  0.0437065576361  2.26620959339  m  1  1  1  v  -3.26623807208e-05  9.87912378403e-06  -4.73535894507e-05
6.51477854095  0.00912411934302  6.65142427505  m  1  1  1  v  1.72878384077e-05  2.54460938929e-06  1.72216041491e-05
6.51930588103  4.41157884543  2.28138898382  m  1  1  1  v  -7.52639675946e-05  1.62555048001e-05  1.16192960044e-05
6.4870333383  4.37446319599  6.69061305703  m  1  1  1  v  -3.08144377278e-05  -2.69444770293e-05  9.29187560716e-05
2.16744297251  2.21439526457  0.021331175148  m  1  1  1  v  1.77852848625e-05  -7.08398904615e-07  -1.82397431004e-05
2.13950907371  2.18812670135  4.42420194441  m  1  1  1  v  2.79222341792e-05  -6.29508099695e-05  3.99229741533e-05
2.16380190551  6.59701193993  0.057120315321  m  1  1  1  v  1.61708984036e-05  -1.70515722088e-05  7.68769641182e-05
2.10766258116  6.57537957915  4.43359260749  m  1  1  1  v  -1.54466266158e-05  -4.75494084166e-06  -7.56634806296e-05
6.57029783323  2.23241311791  0.0779242737  m  1  1  1  v  1.4387864644e-05  -3.11479706246e-05  3.06544237109e-06
6.52824383196  2.21030889226  4.470059121  m  1  1  1  v  -2.4696192286e-05  -2.63961180814e-05  6.35710686503e-05
6.55521121425  6.63134563801  0.114799798618  m  1  1  1  v  4.6622299377e-05  4.52199978439e-05  -2.14374462784e-05
6.50502572488  6.61239368882  4.50768323769  m  1  1  1  v  -4.9160368437e-05  5.45753590777e-05  5.97246082081e-05
