ATOMIC_SPECIES
Si 28.085 Si_ONCV_PBE-1.0.upf upf201
C 12.011 C_ONCV_PBE-1.0.upf upf201

NUMERICAL_ORBITAL
Si_gga_9au_100Ry_3s3p2d.orb
C_gga_9au_100Ry_3s3p2d.orb

LATTICE_CONSTANT
1.88972612546

LATTICE_VECTORS
8.56738496863 0 0 #latvec1
-0.118220556138 8.55770391612 0 #latvec2
-0.181335867257 -0.0969780046403 8.59144405002 #latvec3

ATOMIC_POSITIONS
Cartesian

Si #label
0 #magnetism
32 #number of atoms
3.25728320088  1.09649805931  3.34659438954  m  1  1  1  v  -0.000163326073678  -3.20218187566e-05  0.000128150857279
3.1924982534  1.10078196731  7.69951205154  m  1  1  1  v  -4.10157119814e-05  7.09161458638e-05  -0.000242026648883
3.22706185063  5.49260527262  3.34814723314  m  1  1  1  v  0.000237884467633  -3.3444871291e-05  -0.000229463516471
3.16052485449  5.48398351462  7.74285069332  m  1  1  1  v  -0.000203460463694  -6.60051010369e-05  -3.04816710967e-05
7.62285686937  1.13423088031  3.37789030272  m  1  1  1  v  1.92251609703e-06  7.89168701955e-05  -5.76251014001e-05
7.58556357238  1.11805794397  7.78605567795  m  1  1  1  v  0.000130662465627  -0.000230490009794  5.82165820185e-06
7.58798797169  5.51375782086  3.4290075371  m  1  1  1  v  0.000133945086521  -0.000173666423599  -0.000184788901832
7.57982984715  5.50480642915  7.73938553996  m  1  1  1  v  0.000115794093205  0.000148502827376  -0.000101698813517
3.24539391612  3.30174651787  1.18510638381  m  1  1  1  v  -0.000240781711203  0.000206428566812  0.000152200522326
3.21216690486  3.29351882869  5.55763189165  m  1  1  1  v  4.88969192932e-05  -0.000154884948189  0.000161797655214
3.22000644469  7.6978145382  1.19575499914  m  1  1  1  v  0.000138255115704  -3.84849828913e-05  -0.000194701320523
3.20369883985  7.67496965172  5.55395456452  m  1  1  1  v  -9.24055650877e-05  -6.11062434857e-05  0.000184414056335
7.63614750146  3.35797404647  1.16542971456  m  1  1  1  v  4.81740440116e-05  -0.00010661442783  -0.000153675534142
7.59638092218  3.29772100732  5.5998646419  m  1  1  1  v  0.000133366384178  3.83801699696e-05  7.92850189663e-05
7.59180049932  7.69988627164  1.24487595758  m  1  1  1  v  -0.000166700049727  -0.000331747949235  0.000135988362549
7.58849607738  7.69793238961  5.63964224845  m  1  1  1  v  9.04936496474e-05  0.000140423860588  -0.000127260342059
1.11223837023  1.12847523891  1.12438843686  m  1  1  1  v  0.000211837240472  4.93344799517e-05  9.53154778825e-05
1.03596121609  1.10563599118  5.51762714863  m  1  1  1  v  4.41780405784e-05  0.000190267502702  -0.000113357007819
1.04375293184  5.50733415344  1.15992735588  m  1  1  1  v  -3.33998739346e-05  -6.38602404817e-05  0.000108928986957
1.03086100175  5.46956285415  5.54472171637  m  1  1  1  v  9.47374465124e-05  -1.86786037857e-05  -7.34543577309e-05
5.45753116148  1.12869609986  1.17574476873  m  1  1  1  v  -0.000111054079129  0.00011665832079  0.000262316923546
5.44660388056  1.10800338659  5.52591830756  m  1  1  1  v  1.2057351689e-05  5.19061583132e-05  -7.788650998e-05
5.42315639762  5.50617899165  1.16531598764  m  1  1  1  v  0.000209238181948  9.56387122471e-05  -0.000173587576311
5.41275590838  5.54558752835  5.58809678497  m  1  1  1  v  4.37236313977e-06  -0.000103955424318  0.000162128411
1.03581224982  3.30645227085  3.32831029393  m  1  1  1  v  -0.000167191390074  9.2138018806e-05  0.000232869952844
1.00812528814  3.2783561249  7.71506730433  m  1  1  1  v  -5.10968652881e-05  -0.000119657542711  3.83988816428e-05
1.00421909874  7.6745191868  3.33836884498  m  1  1  1  v  -0.000143767681582  -1.75114717023e-05  9.26517508083e-05
1.00767919243  7.65171681316  7.73571642868  m  1  1  1  v  0.000219747527412  -2.60521402285e-05  -0.000142292295983
5.43442151325  3.2918104801  3.37122529963  m  1  1  1  v  3.99294469497e-05  -9.50977481697e-05  0.000128887002506
5.37156299357  3.28247129231  7.73056288665  m  1  1  1  v  -0.000224301027595  -5.2649683403e-05  5.48644909585e-05
5.40808977919  7.70026525582  3.39957186712  m  1  1  1  v  2.13935300346e-05  0.000111518317959  0.000178873676505
5.34244972021  7.65968490992  7.76301449654  m  1  1  1  v  -5.79067139099e-05  -0.000184147219689  -0.000146395124835

C #label
0 #magnetism
32 #number of atoms
0.223396351252  0.105730797668  0.105422576159  m  1  1  1  v  -0.000336532346841  8.83196411888e-05  3.11521853953e-05
0.16923457226  0.0654647096268  4.46944295975  m  1  1  1  v  -0.000137585524112  0.000149811916141  -0.000199675278014
0.161542567523  4.44710465502  0.138591633341  m  1  1  1  v  -0.000337331213045  0.000227670910247  -2.44332109264e-05
0.135499237356  4.40782410999  4.50108008212  m  1  1  1  v  -8.43013137177e-05  0.000101395094938  0.000209100926375
4.37532986096  0.0751926467982  0.0626897808153  m  1  1  1  v  0.000195541909209  0.000429588955146  0.000366076927017
4.36576528256  0.0381061704097  4.44610558366  m  1  1  1  v  0.00026627122342  0.000216970072932  0.000247234477947
4.3548336334  4.42356044897  0.0814129398635  m  1  1  1  v  0.000104179607707  -0.000323921381703  0.000193590076769
4.31438732943  4.3827009112  4.46557805463  m  1  1  1  v  -0.000209927439701  -9.8513011884e-05  1.71480068677e-05
0.144665456053  2.23757556238  2.29669561077  m  1  1  1  v  -0.000192149428883  -0.000131349161593  0.000187849347171
0.0934475556304  2.20625134572  6.67217460062  m  1  1  1  v  9.22199201258e-05  -0.000184705477158  -5.16010654727e-07
0.114779828068  6.59653765989  2.30785173855  m  1  1  1  v  -9.56237259588e-05  9.84071209673e-05  -0.000412163412107
0.119308687495  6.60182596289  6.70878797882  m  1  1  1  v  -0.000139024879585  -0.00045295880506  0.000162670118367
4.32663885127  2.18163278956  2.2635454874  m  1  1  1  v  -0.000118363485279  -0.000111261723348  3.26956576321e-05
4.31273532108  2.17483880458  6.59108080225  m  1  1  1  v  -0.000173090288116  -7.44970161983e-05  -0.000283439573235
4.33274481395  6.5772370578  2.27910979102  m  1  1  1  v  -0.00041577403027  7.0058819822e-05  3.57616301032e-05
4.26528427743  6.58182121074  6.66957028129  m  1  1  1  v  0.000368001943955  -0.000212808257273  0.000168125971731
2.18959399591  0.0174130414241  2.24620773744  m  1  1  1  v  0.000149305106138  0.000493882650063  0.000376473410228
2.115317794  0.0498262745783  6.59263512427  m  1  1  1  v  -0.0002086362684  0.000196785365894  -0.000229954122958
2.12537454215  4.38647603821  2.28642842704  m  1  1  1  v  -0.000218943440372  5.84057803022e-05  0.000164432979314
2.11509548114  4.37930525993  6.60530515514  m  1  1  1  v  2.39394738175e-05  0.000217004007748  -0.000416458876329
6.57940358469  0.0834716813212  2.26713590049  m  1  1  1  v  6.39180773229e-05  0.000313377066839  0.000208323136272
6.53903886563  0.0244008920758  6.6376815943  m  1  1  1  v  0.000193903879552  -0.000165764353093  -0.000158135420025
6.53647582455  4.41383101724  2.290841187  m  1  1  1  v  -4.81965207226e-05  8.51593972104e-05  0.000190653247492
6.46912548731  4.39206935045  6.69424752153  m  1  1  1  v  1.97089351224e-05  -9.43391549844e-05  7.85104065331e-05
2.1818773759  2.22457424379  0.0282627148256  m  1  1  1  v  -0.000256725843186  -2.09356531343e-05  -0.000217454542789
2.16346607777  2.18323355822  4.42197152421  m  1  1  1  v  0.000223809193092  -0.000146915494374  -2.68116929442e-05
2.15848415587  6.59763500464  0.0567847962634  m  1  1  1  v  -4.36327541252e-05  -3.98869392097e-05  -3.72211746199e-05
2.10842340033  6.57298485244  4.42126035332  m  1  1  1  v  -0.000180843802531  0.000217014429022  1.66913410586e-06
6.56285413112  2.21789123533  0.103971722932  m  1  1  1  v  0.000101580653096  -4.06397565356e-06  9.12950081189e-05
6.51780458162  2.21399251745  4.4613511251  m  1  1  1  v  -0.000201816203736  -8.51355172615e-06  0.000247207041103
6.53665054956  6.62452045076  0.136118309804  m  1  1  1  v  -0.00012548823999  5.07811664667e-05  4.09644398591e-05
6.51584021135  6.60888335761  4.51343382968  m  1  1  1  v  2.8275628549e-05  0.000269547005769  -0.000296267814222
