ATOMIC_SPECIES
Si 28.085 Si_ONCV_PBE-1.0.upf upf201
C 12.011 C_ONCV_PBE-1.0.upf upf201

NUMERICAL_ORBITAL
Si_gga_9au_100Ry_3s3p2d.orb
C_gga_9au_100Ry_3s3p2d.orb

LATTICE_CONSTANT
1.88972612546

LATTICE_VECTORS
9.11756648487 0 0 #latvec1
-4.62576199208 8.14078813253 0 #latvec2
-0.25474667103 -0.092906361151 10.2105508574 #latvec3

ATOMIC_POSITIONS
Cartesian

Si #label
0 #magnetism
36 #number of atoms
-0.0387353722218  1.75687994602  2.5198036842  m  1  1  1  v  3.65399668751e-05  -1.33798665501e-05  -2.21479521242e-05
3.01058656889  7.09687683991  2.59245571784  m  1  1  1  v  2.79228881258e-05  3.04215725263e-05  -2.42402422358e-05
-3.13171986536  7.06284737526  2.50356589561  m  1  1  1  v  -3.80165036955e-05  3.11269066621e-06  9.27442782883e-05
4.50928877011  6.20340613305  5.12209906701  m  1  1  1  v  -8.61681794683e-05  7.10424216926e-05  7.99723082172e-05
1.46706661853  0.876979161965  5.05543271908  m  1  1  1  v  -7.95256644786e-05  9.8120404991e-06  -5.59620510701e-05
7.60284513807  0.900706909201  5.13557848216  m  1  1  1  v  -0.000108460896061  0.000134029152659  -9.29680325101e-05
-0.0976535651493  1.73901165035  7.56694486732  m  1  1  1  v  3.57919280938e-05  3.64025461403e-05  4.82563986716e-05
2.93438078056  7.07844917041  7.62130600934  m  1  1  1  v  -9.24806545791e-05  7.93100807918e-05  -9.84253712021e-05
-3.1956364741  7.04678305309  7.5488833247  m  1  1  1  v  -6.37076669316e-05  7.30385260003e-05  -3.07534721312e-05
4.44013498837  6.18447982968  10.1600400368  m  1  1  1  v  -6.17446662434e-05  -6.07435736432e-05  -6.80885510764e-06
1.39791977786  0.839231345693  10.0975563439  m  1  1  1  v  -0.000123789410089  -6.31174551537e-05  -4.0686747101e-05
7.53907163875  0.86473301288  10.166324503  m  1  1  1  v  5.85953542092e-05  -5.29387249918e-05  -2.18582803907e-05
-1.58417883125  4.40824050138  2.52142216198  m  1  1  1  v  -0.000138743198424  -8.64348971555e-05  0.000159455256691
1.48517329805  4.43777389001  2.55417761266  m  1  1  1  v  0.000143710271236  -0.000176182808349  -1.5671437276e-05
-0.0524941826662  7.08025904666  2.54369406338  m  1  1  1  v  7.58522268956e-06  1.8054258719e-06  -0.000207800854977
6.06419780726  3.54854680522  5.13594659919  m  1  1  1  v  -4.67592167326e-05  0.000101836520905  0.000179939775463
2.98049570432  3.53731947061  5.09084140122  m  1  1  1  v  0.000124699396973  -0.000108648771114  -1.66110665567e-05
4.52768112935  0.884362012753  5.09306736318  m  1  1  1  v  -7.08931041513e-05  -1.65883543516e-07  3.46862852052e-05
-1.6533416727  4.39266590211  7.54633187534  m  1  1  1  v  9.15559749094e-05  -6.48039812432e-05  8.1896300053e-05
1.42342568474  4.4053295678  7.58684245303  m  1  1  1  v  4.66257766399e-06  0.000101359898166  1.89950083758e-05
-0.122845561765  7.05796642177  7.58762312289  m  1  1  1  v  -2.76027204901e-05  0.000232834593725  -3.71398705232e-05
5.99573233613  3.52243592689  10.1600790892  m  1  1  1  v  -9.19219887916e-05  5.37825699151e-05  -2.4925204452e-05
2.92748738196  3.5083993055  10.1279009327  m  1  1  1  v  0.00010930136219  0.000124377188618  0.000103514374546
4.47110232904  0.860348905864  10.1264459608  m  1  1  1  v  3.04793601688e-05  1.52442828642e-05  -5.61906128875e-05
3.02580708516  1.77296677912  2.55977445976  m  1  1  1  v  2.04420223843e-05  5.48337039801e-05  0.000119015423375
6.08256048525  1.78873635648  2.59279124087  m  1  1  1  v  -0.000170392168623  1.24107277094e-05  5.81876778703e-06
4.55335464118  4.4281406949  2.59891426593  m  1  1  1  v  4.63681383869e-06  -8.44267920642e-05  0.000124647429406
1.44792056521  6.19206709882  5.07369675133  m  1  1  1  v  6.15082273643e-06  7.96016101212e-05  -7.34823363621e-05
-1.62057156559  6.16927887403  5.03992435857  m  1  1  1  v  3.91022258613e-05  -8.250662739e-05  7.31457346103e-05
-0.0770811171555  3.52589282917  5.05227326739  m  1  1  1  v  0.000115700479945  -9.87684475786e-05  -5.26747025271e-05
2.96020448029  1.74254627774  7.59601850274  m  1  1  1  v  -9.68149145989e-05  -0.000122140540646  0.000171147151881
6.04736028372  1.76849338108  7.63480786844  m  1  1  1  v  8.76516557332e-05  2.7231236116e-05  6.8518957484e-06
4.48641195527  4.40972493718  7.62635478706  m  1  1  1  v  5.74965880593e-05  -6.98387553498e-05  -9.24758794553e-05
1.38189757234  6.16942655864  10.1185451565  m  1  1  1  v  -9.40849950686e-05  -4.38791244728e-05  -4.39681472784e-05
-1.68094422039  6.15279421221  10.0842857862  m  1  1  1  v  -0.000175468501607  -7.68820895465e-06  8.32317111525e-06
-0.143797021295  3.5026257809  10.0856568618  m  1  1  1  v  -5.30788028174e-05  4.26576441112e-05  4.79617658043e-05

C #label
0 #magnetism
36 #number of atoms
-0.0636944312126  1.7598799797  4.40709896179  m  1  1  1  v  -1.13300629005e-05  9.65721454977e-05  -5.82317852947e-05
2.97633826819  7.09114521269  4.48559028198  m  1  1  1  v  -0.000191362842335  0.000137886624764  3.33882710456e-05
-3.14930731992  7.07416962197  4.40174582628  m  1  1  1  v  7.64933338318e-05  -0.000142254623913  0.000247558037205
4.49255201915  6.20052314182  6.9923655897  m  1  1  1  v  -0.000260205682077  -7.89477811576e-05  6.1923543923e-05
1.44202068619  0.854165530447  6.95488153877  m  1  1  1  v  9.70633606422e-05  0.000106526633835  -0.000102966655355
7.58582544038  0.888276852889  7.02328776597  m  1  1  1  v  -6.35502114491e-05  0.000230236106681  -6.04311788286e-05
-0.145639825096  1.73286164036  9.45659960929  m  1  1  1  v  -0.000285474028947  6.51250024916e-05  -0.000151171862776
2.90173705433  7.04121246712  9.50392152075  m  1  1  1  v  -0.000120195616526  -1.81090179509e-05  -0.000183541638343
-3.21362734418  7.03814934025  9.44116158604  m  1  1  1  v  0.000151069056766  7.39776431359e-05  0.000151658582708
4.55064170173  6.20374198458  1.97461323288  m  1  1  1  v  6.4553162419e-05  -7.23404635672e-05  -0.000254978761108
1.49849414593  0.887140590555  1.8983603209  m  1  1  1  v  -0.000171249069439  -0.000167389441018  -9.00556638284e-05
7.65290022984  0.911582225877  2.00173279828  m  1  1  1  v  -1.94395130294e-07  -5.47328710127e-05  -7.0479557303e-05
-1.61541115404  4.40619976401  4.41339083701  m  1  1  1  v  0.000153462343353  8.95955613235e-05  -0.000157628159091
1.45290061147  4.41869449084  4.44120571817  m  1  1  1  v  -1.45124909338e-05  -9.23099176931e-05  -0.000192556961622
-0.085569406557  7.06933011677  4.44411834587  m  1  1  1  v  4.9254577894e-05  7.06652325971e-05  -1.82738100548e-05
6.0184205902  3.54503280488  7.02913547238  m  1  1  1  v  -0.000105002233957  -3.470142381e-05  0.000229699564225
2.96099066909  3.53004127315  6.97261859034  m  1  1  1  v  -9.54665819333e-05  2.48931676668e-05  -3.19311390182e-06
4.51306451291  0.871056258606  6.98231691562  m  1  1  1  v  8.97726157223e-05  0.000201972223328  -9.36410233189e-05
-1.66762804621  4.36970958299  9.45399468812  m  1  1  1  v  -0.000114430888679  5.1016163518e-05  0.00025589132925
1.39228473613  4.3860587821  9.47288066371  m  1  1  1  v  -8.45868716929e-06  -0.000202994817838  -0.000139741416825
-0.147977536405  7.05708212916  9.48998486037  m  1  1  1  v  0.000173569778912  3.65320450389e-07  9.16131259828e-05
6.09842799357  3.56143888098  1.975110977  m  1  1  1  v  4.0370986395e-05  -1.71476159342e-05  5.74039900234e-05
3.03370728427  3.54686346011  1.94937473195  m  1  1  1  v  0.000137848611285  -0.000213079378896  -0.000185516843886
4.57571766103  0.88319205626  1.94284882284  m  1  1  1  v  0.000320386461328  6.69469707081e-05  8.66171497602e-05
3.00042241584  1.76653824456  4.44653219708  m  1  1  1  v  -0.000240591497298  0.000131845361475  0.000129811704455
6.06796815741  1.76542072105  4.48721325842  m  1  1  1  v  -0.000296634398602  -0.000267540015356  -0.000212450533845
4.53521264692  4.4355057445  4.48039294335  m  1  1  1  v  -1.78417994657e-05  -2.66535664592e-05  -0.000161451226615
1.42769098007  6.18094535801  6.97884288355  m  1  1  1  v  -3.75875580025e-05  7.14756583294e-05  5.14559816385e-05
-1.65723791773  6.15974033384  6.93176749308  m  1  1  1  v  0.000220864711684  -4.97498969365e-05  0.000102241887428
-0.0985664734219  3.51467108347  6.94219234479  m  1  1  1  v  0.000103803167522  0.000273330516643  -0.000121271974648
2.92923073883  1.7380261383  9.49487403232  m  1  1  1  v  -6.23837280019e-05  7.88331978001e-05  0.000177499377845
6.002355007  1.75092924173  9.53178776693  m  1  1  1  v  2.06678650209e-05  -0.000180067830611  -0.00015449462537
4.47466365818  4.39935769408  9.53552592336  m  1  1  1  v  0.000126296894311  -1.94277549174e-05  -3.07598145677e-05
1.47905122433  6.19324925762  1.94518497816  m  1  1  1  v  4.76915427993e-05  -2.79089244681e-05  -0.000331780371994
-1.57468344981  6.17969867254  1.90415953958  m  1  1  1  v  0.000140053826607  -0.000293872264068  0.000164056949742
-0.0466523908215  3.53399403195  1.90374757116  m  1  1  1  v  -7.3450845561e-05  -0.000246541478173  -7.40013485985e-05
