ATOMIC_SPECIES
Si 28.085 Si_ONCV_PBE-1.0.upf upf201
C 12.011 C_ONCV_PBE-1.0.upf upf201

NUMERICAL_ORBITAL
Si_gga_9au_100Ry_3s3p2d.orb
C_gga_9au_100Ry_3s3p2d.orb

LATTICE_CONSTANT
1.88972612546

LATTICE_VECTORS
9.11756648487 0 0 #latvec1
-4.62576199208 8.14078813253 0 #latvec2
-0.25474667103 -0.092906361151 10.2105508574 #latvec3

ATOMIC_POSITIONS
Cartesian

Si #label
0 #magnetism
36 #number of atoms
-0.0375456182241  1.77377711683  2.52065035394  m  1  1  1  v  0.000120341471253  0.000274305279186  -0.000163456087097
3.02251220411  7.09395274892  2.58660965851  m  1  1  1  v  0.000256087585882  0.000151203123322  -0.000260136606801
-3.13132535266  7.0614638624  2.49889456613  m  1  1  1  v  0.000183768162273  3.38076284268e-05  0.00013951814959
4.49471275161  6.19435883643  5.12002565651  m  1  1  1  v  -8.65479870672e-05  1.08651553333e-05  -3.21561705695e-05
1.45651529214  0.87151498726  5.05402338686  m  1  1  1  v  -5.26999109332e-05  -3.82763789733e-05  9.70528795218e-05
7.59180035491  0.909092435417  5.14343799181  m  1  1  1  v  -0.000115967236181  4.82289669114e-06  1.78022858772e-05
-0.0976320575221  1.73722527489  7.56963882188  m  1  1  1  v  0.000285670972555  -2.46981818984e-05  9.00827719813e-05
2.92933900599  7.08469639674  7.62356266816  m  1  1  1  v  -5.93391992871e-05  -0.000271542144976  -4.12014574932e-05
-3.19262741786  7.05889968619  7.5603295121  m  1  1  1  v  -8.23212625562e-05  0.00017745761016  0.000251740292801
4.42245398921  6.18329824134  10.1727172511  m  1  1  1  v  -0.000213511268419  -0.000157065183949  0.000116622091168
1.38767539081  0.839241766562  10.0963629852  m  1  1  1  v  -7.07659493676e-05  0.000246715796509  7.19900490094e-05
7.54601450853  0.870784421145  10.1650050009  m  1  1  1  v  5.7024514385e-05  0.000170516120508  -0.000124598422525
-1.59262197119  4.40933709943  2.53142549136  m  1  1  1  v  0.000192246921865  4.14236563152e-05  0.000178118415499
1.48394400203  4.4402346959  2.55962351964  m  1  1  1  v  -3.63380443728e-05  -6.59530860979e-05  0.000155438636891
-0.0594654327113  7.08193333594  2.52978739764  m  1  1  1  v  -6.01658775752e-05  0.000230337695228  0.000161510083376
6.06005354032  3.54038731196  5.13811414718  m  1  1  1  v  3.3994017411e-05  -0.000233356000705  -0.000138610918968
2.97921035755  3.53379296618  5.08453537334  m  1  1  1  v  -0.00023381293391  5.03869100133e-05  -0.000157984984832
4.52438116555  0.877650435932  5.09801371047  m  1  1  1  v  -0.000160060006782  -5.06864314239e-05  -0.000124253003107
-1.65857922375  4.39748379353  7.55895003647  m  1  1  1  v  -0.000159162722797  0.000207407791217  3.79019051235e-05
1.43092999916  4.4101885052  7.59048464359  m  1  1  1  v  5.45753011479e-05  -2.64043234296e-05  0.000194655450413
-0.120367895373  7.07456189743  7.58828821326  m  1  1  1  v  0.000157280446062  0.000248042515815  0.00013553310242
5.98513836338  3.51472406011  10.163924488  m  1  1  1  v  -0.000132712606638  -1.85331859631e-05  3.53220508597e-05
2.93309629551  3.50644977023  10.1384248626  m  1  1  1  v  5.7954706081e-05  -0.000174403922144  5.84021444493e-05
4.47866268795  0.861428561503  10.1322070543  m  1  1  1  v  -9.76921761903e-05  8.60237475936e-05  9.48871505733e-06
3.02397221926  1.78535530527  2.56558151949  m  1  1  1  v  9.73895325738e-05  -0.000289063801981  0.00019321907541
6.07443033538  1.79357055148  2.59906081151  m  1  1  1  v  0.000252735924553  8.95439417761e-05  -3.24332130037e-05
4.54101776636  4.44125508183  2.59242312802  m  1  1  1  v  0.000131581535729  0.000182198229207  2.16710657175e-05
1.45988178078  6.19474078674  5.0728336218  m  1  1  1  v  -4.21526602871e-05  4.0451852091e-05  -7.07706818592e-06
-1.61840067136  6.17171867783  5.03473874353  m  1  1  1  v  0.000180705808943  0.000177718037454  -0.000144523334823
-0.0713244303894  3.53064443618  5.04693050106  m  1  1  1  v  -0.000121998790311  0.000218005793217  -0.000160357513074
2.95147371801  1.74000998114  7.596097523  m  1  1  1  v  -0.00024773873056  4.13527159965e-05  7.60858936731e-05
6.04334390338  1.77311976478  7.63729094236  m  1  1  1  v  0.000201267167012  -7.26904525488e-05  5.81724323817e-05
4.48944760536  4.41896245448  7.63537246397  m  1  1  1  v  -0.000108574923779  -3.82090554747e-06  0.000214271814876
1.38615164293  6.15684150975  10.1153079748  m  1  1  1  v  -5.87866024875e-05  -7.13428136099e-05  2.42186609016e-05
-1.68971510832  6.15679680278  10.0784386104  m  1  1  1  v  -5.25169656889e-05  1.05985262778e-05  7.8936686334e-05
-0.13843381157  3.50074008272  10.0792710939  m  1  1  1  v  0.000143208973774  -6.78558148303e-05  -0.000144394193234

C #label
0 #magnetism
36 #number of atoms
-0.0718200612908  1.76748499307  4.4229637722  m  1  1  1  v  0.000236252835359  7.64045571409e-05  2.80177307371e-05
2.97039532169  7.07690689108  4.4581435946  m  1  1  1  v  0.000240308884402  9.10449767947e-05  -0.000397443992347
-3.14987052311  7.09427611021  4.40606921971  m  1  1  1  v  -0.000264090400507  0.000349368830003  0.000345640585691
4.50524957784  6.17390905087  6.9851529006  m  1  1  1  v  -8.15461876796e-05  -0.00038997205611  0.000142848665657
1.44128167055  0.857364440887  6.94029456115  m  1  1  1  v  -0.000239951800359  -0.000326364038356  -0.000255720002173
7.57214861564  0.872375188388  7.00467619565  m  1  1  1  v  -0.0001786923924  -0.000524757333569  0.000126940667914
-0.150139942951  1.72443218624  9.46462630714  m  1  1  1  v  3.88321268286e-05  -9.0483819716e-05  0.000142478483484
2.91080393479  7.06046330536  9.50257843626  m  1  1  1  v  -0.000184532315549  0.00037604514059  4.69584294373e-05
-3.20040221531  7.05293441503  9.45320793843  m  1  1  1  v  0.00032834168057  0.000293040157209  6.84358718439e-05
4.5494028372  6.18774550444  1.96627752494  m  1  1  1  v  -0.000147209636302  -3.9354466311e-05  0.000345887864154
1.50299025562  0.886471183198  1.9096181646  m  1  1  1  v  0.000165467504711  9.81381643636e-05  -3.01904593505e-05
7.63040001763  0.907620864919  1.99722014593  m  1  1  1  v  0.000130607409422  -0.000209717908012  -2.72667951442e-05
-1.62580455086  4.38462467997  4.40278168013  m  1  1  1  v  -0.000211052438575  -0.000370842513597  -0.000123055920361
1.44974044332  4.44195483465  4.4168719016  m  1  1  1  v  -0.000432152139568  8.18444147181e-05  -5.26960004396e-06
-0.0841403058528  7.08551651222  4.45366277432  m  1  1  1  v  0.000212411106572  -8.47164751269e-05  -0.000314777872169
6.02386247859  3.55824355115  7.01845680897  m  1  1  1  v  -0.000136509383186  0.000195859863949  -0.000304827078787
2.94948049235  3.50739758559  6.97269970849  m  1  1  1  v  8.37280692544e-05  -0.000250932491393  0.000137847714646
4.51524017522  0.862900094612  6.9674329177  m  1  1  1  v  0.00019664854831  1.22652459184e-05  -1.41021412608e-05
-1.69275067149  4.36950927391  9.44986218193  m  1  1  1  v  -0.000242641002651  -0.000102652012573  -0.000300590687761
1.40011046439  4.40018306757  9.46759650733  m  1  1  1  v  0.000248777538477  0.000268778363191  0.000167454857711
-0.151818116815  7.04766566032  9.49648786214  m  1  1  1  v  0.000183217865384  -1.69341926611e-05  0.000310535747317
6.09152371388  3.55903514465  1.96391423089  m  1  1  1  v  0.000134626445278  6.85204146778e-05  -0.000400454957308
3.04936006307  3.5438617516  1.92945416899  m  1  1  1  v  0.000227967168645  -0.000140026107933  -0.000261388516527
4.58594952108  0.879307380201  1.95509966255  m  1  1  1  v  6.96193873611e-05  -0.000136616191684  -0.00016011218497
3.01538910469  1.77957505774  4.44933492015  m  1  1  1  v  2.05968428862e-05  8.6655200943e-05  -0.000249638311574
6.08557747453  1.76292344018  4.48241777915  m  1  1  1  v  0.000187347114888  3.44866465224e-05  1.94634605458e-05
4.553726207  4.4467623376  4.47961955254  m  1  1  1  v  -7.75382105934e-05  6.84858752436e-05  -0.000258481788851
1.43878688709  6.17158588144  7.00240059708  m  1  1  1  v  6.3268009589e-05  -0.000187903557833  0.000254737781094
-1.65723540255  6.16823611551  6.94333002037  m  1  1  1  v  4.95358848186e-05  1.66067237429e-05  0.000164507754505
-0.091231916207  3.51638863957  6.93873712356  m  1  1  1  v  0.000211688433023  -0.000248832273751  -4.2784755915e-05
2.92273647497  1.7463661609  9.48580220172  m  1  1  1  v  -0.000128893673064  -0.0001052911497  -0.000122571763539
6.00742733572  1.73310082045  9.51642312375  m  1  1  1  v  0.000147805222827  -0.000397957730006  -1.53753088954e-05
4.46757997381  4.40525892574  9.52448026102  m  1  1  1  v  -0.000181957575021  -0.000172520578191  0.000327805833201
1.49082325966  6.18646509468  1.94051382968  m  1  1  1  v  0.000128494784013  -4.94027359924e-05  0.000152273662048
-1.57301788958  6.16328590501  1.91875930771  m  1  1  1  v  -9.43589890042e-06  -2.00148024935e-05  0.000261964911549
-0.0319189217192  3.54266352906  1.88660177003  m  1  1  1  v  -0.000248298891452  0.000173920014917  -0.00017450124514
