ATOMIC_SPECIES
Si 28.085 Si_ONCV_PBE-1.0.upf upf201
C 12.011 C_ONCV_PBE-1.0.upf upf201

NUMERICAL_ORBITAL
Si_gga_9au_100Ry_3s3p2d.orb
C_gga_9au_100Ry_3s3p2d.orb

LATTICE_CONSTANT
1.88972612546

LATTICE_VECTORS
8.9508878971 0 0 #latvec1
-4.5155955244 8.13669662912 0 #latvec2
-0.258521378894 0.170597749096 9.95880942247 #latvec3

ATOMIC_POSITIONS
Cartesian

Si #label
0 #magnetism
36 #number of atoms
-0.0129754394496  1.8078917831  2.50816413096  m  1  1  1  v  7.61152288784e-05  6.97528340263e-06  5.04581368857e-06
3.02041637375  7.13334793138  2.51169657343  m  1  1  1  v  2.53723509859e-05  2.31574015643e-05  -4.46167966612e-06
-3.10359377679  7.10634466414  2.42269312336  m  1  1  1  v  6.83036704746e-06  2.52578567827e-05  0.000127818677505
4.51371742675  6.26895890787  5.0320218484  m  1  1  1  v  -0.000118510542527  4.81352783524e-05  0.000100241713613
1.45908418572  0.939754039429  5.05289167383  m  1  1  1  v  -7.33208247777e-05  1.66217907357e-05  -6.00193553847e-05
7.60051623359  0.952418497219  5.1266939941  m  1  1  1  v  -0.000149081461976  0.000120203609283  -8.39067801958e-05
-0.0975060755138  1.83439865725  7.5625322971  m  1  1  1  v  8.08467356972e-05  6.45733211321e-05  5.897599044e-05
2.93666446496  7.16040661165  7.52535148486  m  1  1  1  v  -9.11329498193e-05  7.73166366429e-05  -8.56358476408e-05
-3.17741505778  7.17151977768  7.46845708891  m  1  1  1  v  -1.96999748013e-05  8.86424835011e-05  -1.19551169298e-05
4.7027476502  6.1326070843  0.122820976678  m  1  1  1  v  -9.5462934842e-05  -7.02661691079e-05  -5.12082240487e-05
1.66236053579  0.803787049899  0.122549085519  m  1  1  1  v  -0.000121663590722  -5.52204332783e-05  -9.9587014604e-05
7.79284418767  0.809477395762  0.192273852559  m  1  1  1  v  1.93278076741e-05  -6.335178846e-05  -6.19608724534e-05
-1.57864039245  4.44033151703  2.47311250567  m  1  1  1  v  -8.76078140456e-05  -6.06345245858e-05  0.000190192288514
1.48925989247  4.47622071575  2.50411905279  m  1  1  1  v  0.000148048565136  -0.000179564412648  1.4026941634e-07
-0.0469373764582  7.11826524257  2.45419800487  m  1  1  1  v  1.60099303554e-05  -4.43245008953e-06  -0.000187661730267
6.06602020586  3.60669237101  5.10171004216  m  1  1  1  v  -8.26002056725e-05  8.35328968808e-05  0.000190750644564
2.98261829928  3.59474106992  5.04826828186  m  1  1  1  v  0.000125024675646  -0.000104892607751  -1.41490860954e-05
4.52408186268  0.946106051058  5.08242521633  m  1  1  1  v  -7.4811138407e-05  6.08130071883e-06  3.18373073836e-05
-1.64711269518  4.49603060803  7.46523998064  m  1  1  1  v  0.000142751229146  -3.41157018156e-05  0.000108883844083
1.43298754983  4.50748356582  7.53646325607  m  1  1  1  v  2.81946177584e-06  9.96637549658e-05  1.79156708008e-05
-0.11223185379  7.15738438517  7.48549189313  m  1  1  1  v  -2.16630164825e-05  0.000231828865063  -2.69107695761e-05
6.2503467691  3.47782747092  0.164999829373  m  1  1  1  v  -0.000122485622433  4.1004759058e-05  -7.22638317275e-05
3.18870442326  3.46556094378  0.119656689109  m  1  1  1  v  0.000110892150973  0.000131556939788  5.24637950292e-05
4.73347575957  0.809918346583  0.142743186499  m  1  1  1  v  2.80720782435e-05  2.41597538686e-05  -0.000115611099072
3.0376099525  1.79772692623  2.53443247559  m  1  1  1  v  1.82026803366e-05  5.43649388105e-05  0.000136724507626
6.08637720489  1.79835111575  2.5781763719  m  1  1  1  v  -0.000177876738591  1.33624667486e-05  2.16610446339e-05
4.5507975335  4.45700888804  2.5537223537  m  1  1  1  v  -1.81143569036e-07  -9.08757335179e-05  0.000139346769515
1.45665524757  6.25988639807  4.99317525582  m  1  1  1  v  6.53756262382e-06  7.57580597498e-05  -6.97486743595e-05
-1.60253024944  6.25178883625  4.95541741747  m  1  1  1  v  4.39507374078e-05  -8.65204764233e-05  7.95117827144e-05
-0.0701746647601  3.59483018132  5.00373355506  m  1  1  1  v  0.000121143537229  -9.85734931142e-05  -4.67444565549e-05
2.95793079218  1.83592103425  7.58543700979  m  1  1  1  v  -9.46994242186e-05  -0.000120769177443  0.000169361929247
6.0613814355  1.86098669692  7.61034331667  m  1  1  1  v  7.59838155343e-05  2.37944151941e-05  1.47389439381e-05
4.4817083621  4.49667370309  7.57099276492  m  1  1  1  v  5.3554719091e-05  -7.07766682391e-05  -8.66919847464e-05
1.64217883806  6.13236210525  0.0724729765941  m  1  1  1  v  -9.21738509179e-05  -4.00024764317e-05  -9.58587599378e-05
-1.42149000951  6.1180097481  0.048607534001  m  1  1  1  v  -0.000162091687003  -1.03582814821e-06  -4.48209884288e-05
0.124193168593  3.4577170352  0.0667522837395  m  1  1  1  v  -4.60267787212e-05  5.53133038649e-05  2.64885872647e-06

C #label
0 #magnetism
36 #number of atoms
-0.0610176608068  1.81273679417  4.37750048317  m  1  1  1  v  7.2022709663e-05  0.000146459072696  -8.77267244752e-05
2.98596727626  7.14408634657  4.40446481144  m  1  1  1  v  -0.00019886586144  0.000131693830405  3.48327376838e-05
-3.12512368171  7.141768579  4.32054936778  m  1  1  1  v  0.000158792151431  -0.000101276615734  0.000217048050139
4.49482037402  6.26964756278  6.91671013105  m  1  1  1  v  -0.000353301123039  -0.000126051836759  1.10736885039e-05
1.43702994713  0.938530192824  6.94922560137  m  1  1  1  v  0.000104583198284  0.000119311517775  -0.000122204665011
7.57074261089  0.952993937763  7.01062486882  m  1  1  1  v  -0.000166394014375  0.000172454804167  -0.000121920004886
-0.141344955308  1.86037062501  9.42468952127  m  1  1  1  v  -0.000205367615285  0.000104323533778  -0.000193238316706
2.90302857167  7.15369467052  9.40900673988  m  1  1  1  v  -0.000118928966767  -2.47944689147e-05  -0.000184294741835
-3.20017988373  7.17190152583  9.34308205013  m  1  1  1  v  0.000232722963419  0.000110048119647  0.000128468257064
4.55177231299  6.21677735673  1.91043480417  m  1  1  1  v  -3.67041046807e-05  -0.000136114931881  -0.000184909863418
1.50265002806  0.906843627885  1.89084025497  m  1  1  1  v  -0.000167396934055  -0.000166214172994  1.29432304487e-05
7.64675946379  0.921522577016  2.00505954627  m  1  1  1  v  -0.000102393524923  -0.000120001148829  -3.23332509467e-05
-1.60259477992  4.46789004844  4.35030237938  m  1  1  1  v  0.000235403983865  0.000137002921485  -0.000189402030624
1.45844404632  4.46650427115  4.39272978973  m  1  1  1  v  -1.39116361387e-05  -8.43971460719e-05  -0.000205645981616
-0.0723264892883  7.13167802768  4.35875191201  m  1  1  1  v  5.82507555549e-05  6.78532801801e-05  -1.71799909121e-05
6.00700640218  3.61536368684  6.98463448774  m  1  1  1  v  -0.000219666059523  -0.000100275644594  0.000182720746571
2.96276433909  3.6215362327  6.92407765341  m  1  1  1  v  -9.81719111295e-05  1.65088570639e-05  -4.24048687111e-06
4.52331626512  0.96860643275  6.9726873936  m  1  1  1  v  7.29304995648e-05  0.000200745171843  -0.000117528287766
-1.65070318086  4.49914362358  9.39526175433  m  1  1  1  v  -4.11740301156e-05  9.10568324522e-05  0.000201078724599
1.39941225098  4.51117068248  9.40590096453  m  1  1  1  v  -8.95190963365e-06  -0.000208398127765  -0.000151300591057
-0.135510049913  7.19172066137  9.38453486869  m  1  1  1  v  0.000171757153165  -1.22001645464e-05  9.45209485581e-05
6.08779406198  3.56995805436  1.93968830994  m  1  1  1  v  -7.22034373255e-05  -9.68154490382e-05  0.000128896844611
3.03765513194  3.56071948518  1.912128099  m  1  1  1  v  0.000132866817705  -0.000216155011298  -8.38289173258e-05
4.57791227352  0.891801791272  1.93014682432  m  1  1  1  v  0.000310538201308  6.63880937206e-05  0.000184426588547
2.99316372523  1.83605410876  4.42250047269  m  1  1  1  v  -0.000239199434464  0.00011209805164  0.000123756996581
6.07166269874  1.82049276679  4.46236658003  m  1  1  1  v  -0.000314100657065  -0.000277688320764  -0.000210487883691
4.54048742991  4.47799704205  4.42153337021  m  1  1  1  v  -3.18975617261e-05  -2.28836814731e-05  -0.000158719037166
1.44655267017  6.26923112021  6.89723971848  m  1  1  1  v  -4.95225901628e-05  7.25007106429e-05  4.13581657128e-05
-1.64791516284  6.25154159962  6.85041683963  m  1  1  1  v  0.000233700190165  -3.62753055217e-05  9.37615778542e-05
-0.0967286212877  3.60528920853  6.89895633091  m  1  1  1  v  0.000119261810773  0.000273424978629  -0.000128563927041
2.92655254612  1.85478190976  9.47289934676  m  1  1  1  v  -5.94437239707e-05  8.27148707072e-05  0.000156794124227
6.00447841895  1.87268369595  9.51185069887  m  1  1  1  v  6.25017304687e-06  -0.00018573161906  -0.000173827233479
4.48088900658  4.52382600897  9.48246590179  m  1  1  1  v  0.00011087330372  -3.33974875595e-05  -5.1116448862e-05
1.48995570471  6.21303010471  1.86562465865  m  1  1  1  v  4.30806716393e-05  -2.79164189949e-05  -0.000220934023166
-1.56508821927  6.20008320923  1.84897210623  m  1  1  1  v  0.00015032757215  -0.000295550749497  0.000261276771534
-0.0243792707282  3.56646156215  1.86947441198  m  1  1  1  v  -7.82875135099e-05  -0.000255868477785  2.17407467433e-05
