ATOMIC_SPECIES
Si 28.085 Si_ONCV_PBE-1.0.upf upf201
C 12.011 C_ONCV_PBE-1.0.upf upf201

NUMERICAL_ORBITAL
Si_gga_9au_100Ry_3s3p2d.orb
C_gga_9au_100Ry_3s3p2d.orb

LATTICE_CONSTANT
1.88972612546

LATTICE_VECTORS
8.9508878971 0 0 #latvec1
-4.5155955244 8.13669662912 0 #latvec2
-0.258521378894 0.170597749096 9.95880942247 #latvec3

ATOMIC_POSITIONS
Cartesian

Si #label
0 #magnetism
36 #number of atoms
-0.0080679687309  1.82658611322  2.51173944418  m  1  1  1  v  0.00014895579483  0.000286660154794  -0.000140669674973
3.0319886959  7.12962857179  2.50806372718  m  1  1  1  v  0.000252201608948  0.000144026776246  -0.000239546299419
-3.09880332699  7.10707895643  2.4216536813  m  1  1  1  v  0.000219671390019  5.04517034237e-05  0.000170812439369
4.49597266347  6.25767977376  5.03187401281  m  1  1  1  v  -0.000112470285437  -7.62982040814e-06  -1.67703008909e-05
1.44924096926  0.935009815067  5.05100733292  m  1  1  1  v  -4.60097083015e-05  -3.20898357754e-05  9.24055272128e-05
7.585304902  0.959466250728  5.13531787394  m  1  1  1  v  -0.00015238411618  -6.49817157751e-06  2.33218479152e-05
-0.0931547643301  1.83525497069  7.56607247475  m  1  1  1  v  0.000319499456276  -4.80374993366e-06  9.48159354224e-05
2.9317097726  7.16641484543  7.52892113486  m  1  1  1  v  -5.89957335208e-05  -0.000273932189024  -2.98911337991e-05
-3.17021404953  7.18495400741  7.48161739804  m  1  1  1  v  -4.88160722437e-05  0.000186695367793  0.000264636410325
4.68166905261  6.13053562483  0.130421058841  m  1  1  1  v  -0.000241543599686  -0.000163293498507  6.93160526937e-05
1.65238896765  0.804651909043  0.115283665352  m  1  1  1  v  -6.80694567412e-05  0.000254551319491  2.03386174185e-05
7.79563034533  0.814436340428  0.18676363027  m  1  1  1  v  1.96010977186e-05  0.000160675479178  -0.000160552041271
-1.58196988822  4.44401070266  2.486317598  m  1  1  1  v  0.000232774038677  6.08046980574e-05  0.000204951034834
1.48849404484  4.47833957258  2.51133477485  m  1  1  1  v  -3.2102930131e-05  -6.88703704295e-05  0.00017213634982
-0.0529868950606  7.1192993626  2.44250992209  m  1  1  1  v  -5.17504108725e-05  0.00022466465972  0.000182106270367
6.05824995184  3.59672435824  5.10486093147  m  1  1  1  v  2.4243919399e-06  -0.000249051973956  -0.000130682423234
2.98133552046  3.59161245454  5.04220457685  m  1  1  1  v  -0.000234031028825  5.3904650947e-05  -0.000155981999231
4.52033766765  0.940028586515  5.08702627825  m  1  1  1  v  -0.000164388762273  -4.53804155222e-05  -0.000127727016175
-1.64729958713  4.50383902779  7.4805080031  m  1  1  1  v  -0.000117586875474  0.00023145558711  6.01559529772e-05
1.44032669909  4.51216756503  7.53991990065  m  1  1  1  v  5.34368297465e-05  -2.78864262848e-05  0.000192417950982
-0.10909952909  7.17387734634  7.48720939341  m  1  1  1  v  0.00016332211414  0.000247187991985  0.000144518027848
6.23656534019  3.46882896185  0.163869401139  m  1  1  1  v  -0.000159576153984  -2.9192394658e-05  -1.08405084413e-05
3.1944601685  3.46436971251  0.124678514829  m  1  1  1  v  5.92137398832e-05  -0.00016783187173  6.90924667222e-06
4.74070053567  0.811956071845  0.142542595249  m  1  1  1  v  -0.000101181112986  9.46679269641e-05  -4.10374989444e-05
3.03556164728  1.81006562037  2.54220739559  m  1  1  1  v  9.56363755226e-05  -0.000289602113775  0.000211484691994
6.07735946605  1.8032086358  2.586219487  m  1  1  1  v  0.000244064708331  8.91833185069e-05  -1.56999273643e-05
4.53787053618  4.46939385367  2.54890860007  m  1  1  1  v  0.000125712972855  0.000175103613012  3.77891373911e-05
1.46863748475  6.26214550863  4.9926949121  m  1  1  1  v  -4.21054818071e-05  3.66726120332e-05  -3.91659096501e-06
-1.59977146302  6.25384117072  4.95089035907  m  1  1  1  v  0.000186491313837  0.000174696204669  -0.000138831111929
-0.0637820525176  3.59963857006  4.99899832442  m  1  1  1  v  -0.000115695900365  0.000218882158669  -0.000155181468819
2.94943130109  1.8335473689  7.585244971  m  1  1  1  v  -0.000245578469043  4.30794647597e-05  7.29733133135e-05
6.05603728959  1.86518128282  7.61360533861  m  1  1  1  v  0.000188758486508  -7.68227914034e-05  6.43746970213e-05
4.48423668161  4.50577160772  7.58057506761  m  1  1  1  v  -0.000113975723001  -5.41545455799e-06  0.000218827611034
1.64664707054  6.12015973729  0.0636221708095  m  1  1  1  v  -5.71527047387e-05  -6.80264417323e-05  -2.31867293594e-05
-1.42881678248  6.12274956338  0.0374649425965  m  1  1  1  v  -3.92833881164e-05  1.74484401086e-05  3.519976441e-05
0.130346614824  3.45722620214  0.0555902667083  m  1  1  1  v  0.000150672240963  -5.52796742273e-05  -0.000187922448769

C #label
0 #magnetism
36 #number of atoms
-0.060906631889  1.82525415933  4.39070808878  m  1  1  1  v  0.00030618406572  0.000118237375188  6.87602996413e-06
2.97933697786  7.1292043626  4.37724775233  m  1  1  1  v  0.000234683066512  8.53303772211e-05  -0.000394610041754
-3.11778827724  7.16567483442  4.32231026306  m  1  1  1  v  -0.000200870795677  0.000379308374786  0.000328356740199
4.49900285719  6.2389964645  6.90484364736  m  1  1  1  v  -0.000146675212754  -0.000418596074709  0.000106784417786
1.43705563965  0.943040604219  6.93264321146  m  1  1  1  v  -0.000233619557019  -0.000315190966174  -0.000272996568869
7.54745868003  0.93187313071  6.98615509557  m  1  1  1  v  -0.000251260595535  -0.000561217183241  8.19481083832e-05
-0.137603246031  1.85604807741  9.42836439292  m  1  1  1  v  0.000111247028494  -5.44328734414e-05  0.000104044480232
2.9122559599  7.17231973915  9.40744052829  m  1  1  1  v  -0.000182954529315  0.000371441795874  4.4387421102e-05
-3.17884255942  7.19023680865  9.35299196994  m  1  1  1  v  0.000393639418876  0.000320774940906  5.37638484486e-05
4.54083238071  6.19465940574  1.91033613297  m  1  1  1  v  -0.000223687083165  -8.80039274488e-05  0.000422322045566
1.50756027944  0.906196393611  1.91228331674  m  1  1  1  v  0.000169748096277  9.7758501811e-05  5.18304854592e-05
7.61471238856  0.911467708772  2.00475256081  m  1  1  1  v  5.80725876351e-05  -0.000255830689987  1.07713581914e-05
-1.60488703641  4.45087379198  4.33686968139  m  1  1  1  v  -0.000142061324464  -0.000332797090882  -0.000144954881437
1.45541800156  4.49056916315  4.36715089967  m  1  1  1  v  -0.000430713819927  8.86986278117e-05  -1.47720224033e-05
-0.0699349918959  7.14759628801  4.36859455581  m  1  1  1  v  0.00022111510467  -8.68551817088e-05  -0.000310557222348
6.00147478985  3.62240425023  6.96945608128  m  1  1  1  v  -0.000223540804056  0.000147415431484  -0.000341050057815
2.95091030445  3.598006225  6.9241309192  m  1  1  1  v  8.03855641755e-05  -0.000259074490906  0.000138357639476
4.52368566081  0.960291554705  6.95533908643  m  1  1  1  v  0.000180425649286  1.06543345847e-05  -3.50339696181e-05
-1.6684004299  4.50301982837  9.38546424197  m  1  1  1  v  -0.000181361093955  -6.89803131436e-05  -0.000349507538819
1.40721572155  4.52478759935  9.39939461395  m  1  1  1  v  0.000248908733004  0.000264907354693  0.000156402856767
-0.13949040372  7.18107553731  9.39126932877  m  1  1  1  v  0.000182306277741  -2.71724883669e-05  0.000312505360589
6.06991017546  3.55957898447  1.93590335757  m  1  1  1  v  5.0310567899e-05  7.0331048296e-06  -0.000328178121636
3.05274247897  3.55734512242  1.90299533866  m  1  1  1  v  0.000222538924073  -0.000143408929962  -0.000161110401198
4.58718122496  0.887807272326  1.9517255179  m  1  1  1  v  6.08996582522e-05  -0.000137790074908  -8.51376630482e-05
3.00831858282  1.84705189552  4.42476606376  m  1  1  1  v  2.29613978503e-05  6.92964744713e-05  -0.000253518015365
6.08746871174  1.81697196728  4.457835327  m  1  1  1  v  0.000171472679469  2.58198260532e-05  2.21639517557e-05
4.55752863943  4.48965623533  4.42111362982  m  1  1  1  v  -9.06065975881e-05  7.21252045568e-05  -0.000254773637923
1.45634043656  6.25993414872  6.9198453792  m  1  1  1  v  5.14515402513e-05  -0.000187600503387  0.000247294035034
-1.64659335993  6.2614139449  6.86113881796  m  1  1  1  v  6.1192714416e-05  2.87141607036e-05  0.000157726933023
-0.0878008410357  3.60703936549  6.89473452931  m  1  1  1  v  0.00022503259119  -0.000248520285356  -4.95367339297e-05
2.92039936229  1.86355179028  9.46166386204  m  1  1  1  v  -0.000125859944172  -0.000101608612734  -0.000141407186946
6.00803753961  1.85431712707  9.49433462108  m  1  1  1  v  0.0001347198427  -0.000402179727578  -3.53969826066e-05
4.47220336275  4.52831994738  9.46917259646  m  1  1  1  v  -0.000195992338452  -0.000183837203813  0.000306641805287
1.501223828  6.20619963743  1.87290678796  m  1  1  1  v  0.000124799896818  -5.05707724268e-05  0.000250808407153
-1.56226590275  6.18337746021  1.87288752223  m  1  1  1  v  1.18266035502e-06  -2.31835297608e-05  0.00033517165687
-0.0100715449014  3.57406413711  1.86214615173  m  1  1  1  v  -0.000252397906905  0.000164589141613  -8.68745747841e-05
