ATOMIC_SPECIES
Na 22.9898 ./Na_ONCV_PBE-1.0.upf

NUMERICAL_ORBITAL
./Na_gga_9au_100Ry_4s2p1d.orb

LATTICE_CONSTANT
1.8897261246257702

LATTICE_VECTORS
6.346640091744497 4.937196701587207e-38 1.2037062152420224e-35 
-0.3705014335305696 6.058733473921547 0.0 
-0.015873658000553906 0.3179036738246763 6.2932225242482485 

ATOMIC_POSITIONS
Cartesian    # Cartesian(Unit is LATTICE_CONSTANT)
Na
0.0
16
-0.008289649100 0.030332765800 0.056402966100 1 1 1
2.797350980600 6.219793318300 3.161468371800 1 1 1
6.113743776900 3.223426448700 3.106599211400 1 1 1
2.998285897900 3.354271145000 6.223936519100 1 1 1
1.517423014100 1.670496846500 1.593291395100 1 1 1
1.267420564100 4.770322985200 4.801551081900 1 1 1
4.723318527200 1.682384500800 4.656990869100 1 1 1
4.436451282900 4.648732133600 1.570375252600 1 1 1
3.021075378900 3.184384115400 3.161526283000 1 1 1
6.200104867800 2.984772191800 0.037045412200 1 1 1
3.111322609500 0.415523591300 6.289856063200 1 1 1
-0.353352845700 6.185860317900 3.121157274800 1 1 1
4.538514047000 4.814465590800 4.799631333900 1 1 1
4.633297120700 1.532257860300 1.610712046900 1 1 1
1.379279116600 4.605893348800 1.545018762600 1 1 1
1.476026597300 1.771005300600 4.687128705800 1 1 1
