ATOMIC_SPECIES
Si 28.085 Si_ONCV_PBE-1.0.upf upf201
C 12.011 C_ONCV_PBE-1.0.upf upf201

NUMERICAL_ORBITAL
Si_gga_9au_100Ry_3s3p2d.orb
C_gga_9au_100Ry_3s3p2d.orb

LATTICE_CONSTANT
1.88972612546

LATTICE_VECTORS
8.63131821409 0 0 #latvec1
-0.25826084108 8.85123118924 0 #latvec2
-0.0912822076391 0.0796291098861 8.94332024703 #latvec3

ATOMIC_POSITIONS
Cartesian

Si #label
0 #magnetism
32 #number of atoms
3.22964748127  1.15674847789  3.28003315478  m  1  1  1  v  2.01770079589e-05  -6.57608105145e-06  1.39095932127e-05
3.20835265515  1.17465410121  7.61358257914  m  1  1  1  v  8.30615591861e-06  -1.58144801691e-05  2.77912654796e-05
3.16400477887  5.49859087665  3.26349478255  m  1  1  1  v  -5.11394045277e-05  1.26380563744e-05  -1.14840056858e-05
3.13774628009  5.52005316445  7.60210834713  m  1  1  1  v  4.96141886441e-05  -5.51006930217e-05  4.26432159899e-06
7.5919011633  1.21576187954  3.30320500991  m  1  1  1  v  1.3981931597e-05  3.70634720726e-05  -2.74168264091e-05
7.56535037724  1.23218830151  7.64402291197  m  1  1  1  v  -7.73241070022e-08  -6.90050982369e-06  6.15865379865e-06
7.51345159109  5.58257359158  3.27735664248  m  1  1  1  v  -3.58965021797e-05  -5.97242840941e-06  -2.11758762705e-07
7.49443198796  5.57955832115  7.63338451253  m  1  1  1  v  2.34993472503e-05  2.34035127965e-05  -3.99428281672e-05
3.21546594525  3.32619859865  1.08321424737  m  1  1  1  v  4.81841960591e-05  1.20144715974e-05  -1.56858076568e-06
3.18871372206  3.34510843421  5.42383348788  m  1  1  1  v  4.06927322086e-06  -1.6765463499e-05  2.32956136015e-05
3.12731125558  7.64446858387  1.06716051747  m  1  1  1  v  -3.95542596574e-06  4.13295679698e-05  -7.14952199395e-06
3.11856044093  7.69121053674  5.41109988113  m  1  1  1  v  1.46951061928e-05  -3.1339250761e-05  -2.41910611794e-05
7.55745888219  3.36452273956  1.11181250771  m  1  1  1  v  -6.47526364639e-06  -1.96149755154e-05  -2.81589208966e-05
7.54077945426  3.39046964071  5.45074173773  m  1  1  1  v  6.34691779131e-06  2.19435895493e-05  -9.08215779425e-06
7.51308497657  7.72473310211  1.08162392391  m  1  1  1  v  -9.59226192736e-06  -1.59733164086e-05  -4.43537373568e-05
7.45611809007  7.7338348498  5.45405522005  m  1  1  1  v  -5.22182108639e-07  -1.40244338753e-05  3.22663412498e-05
1.06340683211  1.10198979422  1.08005503744  m  1  1  1  v  -3.92118564325e-06  5.45610148414e-05  -4.34923931481e-07
1.05809740081  1.13026716737  5.44471667279  m  1  1  1  v  -2.20090657927e-05  -5.3545044529e-07  1.69975370252e-05
0.987018679675  5.4687391419  1.06709226342  m  1  1  1  v  2.00978039164e-07  6.24659718675e-06  -2.38537202989e-05
0.982152300552  5.47918621785  5.41611246185  m  1  1  1  v  1.69819284491e-05  3.52999992801e-05  -3.60001398044e-05
5.41446572865  1.16836945488  1.12453365316  m  1  1  1  v  4.89594820294e-06  -2.0523317423e-05  -5.42088695133e-06
5.38645825686  1.18527347555  5.46301619845  m  1  1  1  v  1.76307795907e-05  2.66566218539e-05  -1.40513262844e-05
5.3682000055  5.50941537677  1.09254956256  m  1  1  1  v  -1.39452949617e-05  1.09830283351e-05  -2.84603737904e-05
5.31372216332  5.54215282361  5.44165568637  m  1  1  1  v  2.5907775622e-05  1.544598437e-05  1.18033720827e-06
1.02995316329  3.28564482944  3.26255400694  m  1  1  1  v  2.15920527027e-06  2.49228455946e-05  -4.20510260939e-06
0.986158475242  3.33194547754  7.60236724272  m  1  1  1  v  1.17880211309e-05  -7.82244256971e-06  2.94142589223e-05
0.973144150882  7.64945907306  3.220642573  m  1  1  1  v  -1.17780439914e-06  1.69858240707e-05  -3.73185656953e-06
0.933639838877  7.65359950183  7.59134468305  m  1  1  1  v  -4.55736898023e-05  5.10088508439e-05  -2.49860542668e-05
5.3871464725  3.35737617731  3.26306044347  m  1  1  1  v  1.22971176603e-05  -3.47424892603e-05  2.40722837765e-05
5.34546788264  3.38764003329  7.63191597008  m  1  1  1  v  -2.49934501961e-05  -5.18425507666e-06  -3.9190123572e-05
5.30790821  7.68935774627  3.23008654781  m  1  1  1  v  -2.88503001617e-05  -1.29233618409e-05  3.42987239032e-05
5.27905070365  7.72927177858  7.60573209885  m  1  1  1  v  -6.06606577587e-05  1.41101308693e-06  3.926419669e-05

C #label
0 #magnetism
32 #number of atoms
0.0612919968185  0.132476710923  0.0529616856765  m  1  1  1  v  5.14033805791e-05  -3.53975179349e-05  5.01615598597e-05
0.048580389045  0.135736076577  4.37907256302  m  1  1  1  v  -3.49564946104e-05  -2.72899728935e-05  -3.96639917282e-05
0.00936591852255  4.46818218024  0.0227352953985  m  1  1  1  v  1.11855563644e-05  -5.54331374466e-05  -2.85202011965e-05
-0.012433276111  4.47728122585  4.37471698303  m  1  1  1  v  1.02670149018e-05  -1.13812066724e-05  9.17421495083e-06
4.35906157806  0.0640680477898  0.0168178994411  m  1  1  1  v  -3.4564990281e-05  2.16206945678e-05  -2.69083881351e-05
4.33808006262  0.0630560629815  4.36756316414  m  1  1  1  v  -6.61145009469e-06  -2.37718539561e-05  -2.21947894974e-05
4.28918832884  4.41415893041  0.00488641795794  m  1  1  1  v  2.42805038455e-05  2.72167701778e-05  1.51302756405e-06
4.23705780317  4.43856995388  4.34191095883  m  1  1  1  v  8.7689095425e-07  2.86096704786e-05  4.79244357726e-05
0.000929574816959  2.32619610563  2.21076495993  m  1  1  1  v  -6.32455245672e-06  -2.95111270991e-05  -7.52984863861e-06
-0.0173669139186  2.33412539068  6.57671883267  m  1  1  1  v  4.28953101311e-05  1.90035897295e-05  5.74391270615e-05
-0.0459421506044  6.65958547777  2.17421228047  m  1  1  1  v  5.99544140987e-06  -4.4977418739e-05  -4.45290602256e-05
-0.0665784532861  6.68315672563  6.55009909872  m  1  1  1  v  -2.17049546518e-05  -7.70098582005e-05  2.80687337577e-05
4.32241439158  2.24570534849  2.19987862271  m  1  1  1  v  7.8077306335e-05  -4.91752671965e-05  1.00554887098e-05
4.27822482571  2.25940959645  6.53867516284  m  1  1  1  v  -3.2330219295e-05  9.54760314657e-06  6.06049947329e-05
4.24826751059  6.57328949253  2.14813883526  m  1  1  1  v  1.09070153235e-08  4.06399991487e-05  5.07395758176e-05
4.21693843093  6.61506822832  6.50860600003  m  1  1  1  v  1.92861628598e-05  4.80724403036e-06  9.74149433452e-07
2.15893289233  0.0223213503714  2.18560553778  m  1  1  1  v  7.28418113835e-05  7.96953246256e-07  -1.48459162896e-05
2.12919566996  0.0603491868805  6.55331994825  m  1  1  1  v  5.35786845957e-06  3.08828604155e-05  -4.98106218971e-05
2.09971010923  4.38094831967  2.16726755579  m  1  1  1  v  1.5888781866e-05  -4.7517400958e-05  4.30355136038e-05
2.07643039868  4.41060099811  6.52978196693  m  1  1  1  v  -4.84089564358e-05  -2.56876038298e-05  -4.50283348848e-05
6.48954514342  0.120001840739  2.2071606104  m  1  1  1  v  -3.26623807208e-05  9.87912378403e-06  -4.73535894507e-05
6.49072693723  0.113236224714  6.56266390666  m  1  1  1  v  1.72878384077e-05  2.54460938929e-06  1.72216041491e-05
6.44316600203  4.45147612629  2.19826272243  m  1  1  1  v  -7.52639675946e-05  1.62555048001e-05  1.16192960044e-05
6.41798193541  4.47092785628  6.53276317927  m  1  1  1  v  -3.08144377278e-05  -2.69444770293e-05  9.29187560716e-05
2.05754952072  2.26970778077  8.94121226503  m  1  1  1  v  1.77852848625e-05  -7.08398904615e-07  -1.82397431004e-05
2.09860735186  2.20459714421  4.34443815956  m  1  1  1  v  2.79222341792e-05  -6.29508099695e-05  3.99229741533e-05
1.99506083046  6.62450571619  8.9365475372  m  1  1  1  v  1.61708984036e-05  -1.70515722088e-05  7.68769641182e-05
2.04283438034  6.55863194242  4.33337101234  m  1  1  1  v  -1.54466266158e-05  -4.75494084166e-06  -7.56634806296e-05
6.48527330295  2.27518227861  0.0249808237647  m  1  1  1  v  1.4387864644e-05  -3.11479706246e-05  3.06544237109e-06
6.47156605326  2.30126489871  4.36705573765  m  1  1  1  v  -2.4696192286e-05  -2.63961180814e-05  6.35710686503e-05
6.42617474992  6.60738893745  0.0118727250681  m  1  1  1  v  4.6622299377e-05  4.52199978439e-05  -2.14374462784e-05
6.40982835349  6.63154979357  4.35023513161  m  1  1  1  v  -4.9160368437e-05  5.45753590777e-05  5.97246082081e-05
