ATOMIC_SPECIES
Si 28.085 Si_ONCV_PBE-1.0.upf upf201
C 12.011 C_ONCV_PBE-1.0.upf upf201

NUMERICAL_ORBITAL
Si_gga_9au_100Ry_3s3p2d.orb
C_gga_9au_100Ry_3s3p2d.orb

LATTICE_CONSTANT
1.88972612546

LATTICE_VECTORS
8.63131821409 0 0 #latvec1
-0.25826084108 8.85123118924 0 #latvec2
-0.0912822076391 0.0796291098861 8.94332024703 #latvec3

ATOMIC_POSITIONS
Cartesian

Si #label
0 #magnetism
32 #number of atoms
3.22659054382  1.15055721592  3.2804056052  m  1  1  1  v  4.28902207565e-05  -8.77632377615e-05  -4.08443277499e-06
3.21121087365  1.18031767638  7.62007619367  m  1  1  1  v  -3.73998558384e-05  0.000100174276738  0.000117372642464
3.15731356801  5.49445555345  3.26242974106  m  1  1  1  v  7.53550549366e-05  -9.77803884443e-05  3.87678017696e-05
3.12966092559  5.52271178011  7.61220677293  m  1  1  1  v  -0.000171143655845  7.30420739246e-05  8.48003261866e-05
7.58832955153  1.22173978975  3.29313278221  m  1  1  1  v  -7.2493082703e-05  -5.36714746325e-05  -2.09755928032e-06
7.56551011076  1.22476324604  7.64331768111  m  1  1  1  v  4.61687026667e-05  -4.44584082446e-05  9.81277425587e-05
7.51029717309  5.58299729833  3.2798574115  m  1  1  1  v  -9.98780053068e-05  -8.79801199944e-05  0.000111754133758
7.4980466669  5.59023971284  7.63240427372  m  1  1  1  v  0.000189092645631  0.000107694886724  -9.31398292403e-05
3.20522412272  3.31528789314  1.08746601526  m  1  1  1  v  -0.000163299895829  -0.000176693144151  -4.2395720416e-05
3.19121023566  3.3439459648  5.41490901779  m  1  1  1  v  -1.0356299946e-05  -5.23146501053e-05  1.20582713116e-05
3.12199149632  7.6451486258  1.06783007997  m  1  1  1  v  -0.000141865748556  1.78893677911e-05  0.000154696294378
3.12071930237  7.68973696204  5.40933628205  m  1  1  1  v  7.85230927118e-05  -1.36885607337e-05  5.18707312762e-05
7.55406935939  3.36526088946  1.11408102577  m  1  1  1  v  -7.16932784024e-05  2.51555138183e-05  -8.1950624547e-05
7.5380259203  3.39160259997  5.44774099093  m  1  1  1  v  -3.49467441172e-05  7.97763625019e-05  2.27850799997e-05
7.51304359387  7.72654234163  1.07816433853  m  1  1  1  v  -4.79609055142e-06  3.66482359057e-05  -1.60200467588e-05
7.4640726716  7.73700363528  5.45630665832  m  1  1  1  v  -1.88901062533e-06  0.000113302195101  -5.55284893424e-05
1.06758632991  1.11127459411  1.08595878824  m  1  1  1  v  9.69686133578e-05  0.000228178284423  0.000110202396466
1.05502486146  1.1400432458  5.45291675343  m  1  1  1  v  -2.37368344969e-05  0.000192454767252  1.03828761565e-06
0.98787910825  5.47084925276  1.07425204354  m  1  1  1  v  -0.000162125444884  2.26030078345e-05  4.92562147878e-05
0.979270121811  5.48953774708  5.42462822878  m  1  1  1  v  -0.000183555316754  2.85384970958e-05  5.7620441418e-06
5.41582350253  1.16021412717  1.11715543769  m  1  1  1  v  3.59495746314e-05  -0.000117707555412  -3.78987171965e-05
5.38822633794  1.19151883857  5.46231409058  m  1  1  1  v  -1.99618995909e-05  -3.94494336195e-05  -7.27703515837e-05
5.36755741848  5.50302403821  1.09043875248  m  1  1  1  v  5.21374663632e-06  -8.66550679493e-05  -7.22678236708e-05
5.30823115388  5.54801350281  5.43345821903  m  1  1  1  v  -3.54866671809e-05  0.000114893040472  3.53122886378e-05
1.03328329418  3.28837035801  3.27085102069  m  1  1  1  v  -1.44029357961e-05  0.000181337987685  4.70328087459e-05
0.990610603229  3.33580596114  7.61656786145  m  1  1  1  v  -2.20682075433e-05  -3.97910169281e-05  -4.4322653214e-05
0.96719049231  7.65837465255  3.22585580004  m  1  1  1  v  -8.19360240234e-05  4.58516525647e-05  -0.000108001024254
0.9424029278  7.65155010108  7.59356652014  m  1  1  1  v  2.46575225556e-05  2.42429735728e-05  0.000128784239173
5.39152545546  3.35673959288  3.2648383114  m  1  1  1  v  -1.14070141539e-06  1.8297902853e-05  -0.000153345623373
5.34728146205  3.3910309296  7.63132135678  m  1  1  1  v  5.91995501816e-05  4.47472158216e-05  -8.01406087797e-05
5.30848807741  7.69960466703  3.2293772489  m  1  1  1  v  5.13205568758e-05  0.000100367459946  -5.83668604084e-06
5.2749938209  7.73239928744  7.61020632074  m  1  1  1  v  2.78240838134e-05  -0.000160173018872  -3.15890569625e-06

C #label
0 #magnetism
32 #number of atoms
0.0536519872502  0.129038785187  0.0404642245578  m  1  1  1  v  -6.11377782484e-05  -8.05522280409e-06  1.83827411898e-05
0.0441964905581  0.13183442443  4.37446304082  m  1  1  1  v  0.00023435310713  -5.93001317158e-05  -4.6340794276e-05
-0.00838110801159  4.46167225942  0.00677178601149  m  1  1  1  v  -8.25770443262e-05  -7.11384012243e-05  -0.000259904989992
-0.0294779872484  4.47430796953  4.37258889113  m  1  1  1  v  -1.63759387155e-06  -0.000111573365332  8.68838400073e-05
4.35666743941  0.0650909389391  0.00785190649905  m  1  1  1  v  -0.000137776051518  9.43335050913e-05  6.66544133925e-05
4.34488137506  0.063484369999  4.37625539801  m  1  1  1  v  2.1837554241e-05  -0.00023939894717  7.84919807062e-05
4.18850544327  4.49063442153  8.9343805597  m  1  1  1  v  -0.000236079138187  -0.000168616716758  -0.00031785372757
4.23988292506  4.44485202667  4.33774498462  m  1  1  1  v  -0.000110261266011  0.000280019592135  0.000205850396554
-0.00320805750674  2.32291131736  2.21319279614  m  1  1  1  v  -8.9715543032e-07  -3.49360913731e-05  -9.04403961383e-05
-0.0214164350122  2.32863992437  6.57852445729  m  1  1  1  v  -4.76329359393e-05  5.83903541324e-05  -2.79136680701e-05
-0.055813420897  6.65344357703  2.16863572348  m  1  1  1  v  -0.000113506012749  2.13972927231e-05  0.000108999871053
-0.0661693063389  6.67133322731  6.5408475806  m  1  1  1  v  3.90882999999e-08  -9.54233341721e-05  0.000116482311869
4.31507873394  2.25087992132  2.20424817914  m  1  1  1  v  3.13615696499e-05  -9.47118856489e-05  0.000148454288959
4.27988343617  2.27706748387  6.53197650381  m  1  1  1  v  -0.000110207916696  -7.6725999336e-05  -0.000266154477255
4.23962013607  6.5643329869  2.14135733775  m  1  1  1  v  2.02389566708e-05  -0.000194405429033  0.000249008343241
4.2169295411  6.61829446758  6.50243630685  m  1  1  1  v  -0.000192196651516  -0.000194196976566  -0.000303326881213
2.15909832963  0.0216497878398  2.17642863242  m  1  1  1  v  -2.16344860426e-05  -0.000140119121697  -0.00014847358872
2.12680350746  0.0641533154981  6.55666920699  m  1  1  1  v  9.46127708254e-05  6.02660404519e-05  -0.000225222132649
2.0944024429  4.37745061536  2.1706769654  m  1  1  1  v  -0.000109447412293  -0.000203024511173  0.000180611901025
2.08817354754  4.41432205263  6.5223929007  m  1  1  1  v  -0.000183062001385  0.000116713067076  -6.15980140415e-05
6.49206401714  0.121279527107  2.22063391278  m  1  1  1  v  -7.54670017943e-05  -6.02743972331e-05  -2.8385957022e-05
6.50497350786  0.0985218831109  6.5581757617  m  1  1  1  v  1.13231623416e-05  2.93144803709e-05  -4.90360786172e-05
6.45814109449  4.44653589502  2.19037057918  m  1  1  1  v  0.0001533176834  0.000106634134697  -0.000118054256425
6.41311927901  4.48280207918  6.53348620692  m  1  1  1  v  -4.19521813824e-05  0.000333045323303  0.00015314781181
2.06185059532  2.26584547146  8.92863876736  m  1  1  1  v  3.52434764078e-05  2.05805429243e-05  -0.000145642896034
2.10351999755  2.21080099142  4.33621966309  m  1  1  1  v  -8.56157016038e-05  -0.000173018477827  0.000110668521331
1.99010094164  6.62693503067  8.93451740695  m  1  1  1  v  -8.89183404e-05  8.81155960657e-05  -0.000146797838223
2.04387751125  6.56109418467  4.33534456134  m  1  1  1  v  0.000125541886601  0.000153126755518  8.48112252791e-05
6.4824004006  2.28087302294  0.0217275283699  m  1  1  1  v  -0.000101442723117  -2.15232577634e-05  0.000111032677909
6.46742758756  2.29762583052  4.3639539563  m  1  1  1  v  7.41722157709e-05  -0.000170399307767  -2.24651219044e-05
6.41809567751  6.61703920295  0.00789866249192  m  1  1  1  v  9.0238351863e-07  5.84326056896e-05  -0.000147668984936
6.42066747202  6.6362204281  4.34411772093  m  1  1  1  v  -4.35859529872e-05  6.36563035077e-05  4.91585060818e-05
