ATOMIC_SPECIES
Si 28.085 Si_ONCV_PBE-1.0.upf upf201
C 12.011 C_ONCV_PBE-1.0.upf upf201

NUMERICAL_ORBITAL
Si_gga_9au_100Ry_3s3p2d.orb
C_gga_9au_100Ry_3s3p2d.orb

LATTICE_CONSTANT
1.88972612546

LATTICE_VECTORS
8.76438024167 0 0 #latvec1
0.233798109659 8.75158289597 0 #latvec2
-0.172770053304 -0.104565336697 8.90578285018 #latvec3

ATOMIC_POSITIONS
Cartesian

Si #label
0 #magnetism
32 #number of atoms
3.30958092655  1.04628789221  3.37236525607  m  1  1  1  v  3.61642038173e-05  -6.68756509053e-05  4.47946210433e-06
3.25243652009  1.01193911423  7.81184440559  m  1  1  1  v  -3.77970051833e-05  0.000115948177409  7.44308262562e-05
3.37397158704  5.47741598891  3.40401446336  m  1  1  1  v  7.38994784807e-05  -9.53642013753e-05  4.76262198074e-05
3.29789126851  5.46725438498  7.84172310605  m  1  1  1  v  -0.0001743322676  6.59842720848e-05  4.1052001953e-05
7.75652246794  1.01136832969  3.39030523598  m  1  1  1  v  -7.9246421704e-05  -3.21569657356e-05  1.12731718532e-05
7.72027263801  0.952097134995  7.83780327451  m  1  1  1  v  2.9760741166e-05  -2.81019869451e-05  5.90502436157e-05
7.8039076619  5.41257390991  3.43029653561  m  1  1  1  v  -0.000108194144353  -6.63662172945e-05  0.000121395527728
7.75692154535  5.4136888945  7.87342113261  m  1  1  1  v  0.000186159550608  0.000108289910674  -0.000134039641675
3.36018067584  3.25379937824  1.15782772518  m  1  1  1  v  -0.000168716493987  -0.000163008121008  -2.50459713561e-05
3.2969738469  3.27630347069  5.58401068785  m  1  1  1  v  1.46042460627e-06  -5.32939854793e-05  1.32046832049e-05
3.42256994435  7.70366637528  1.19439747983  m  1  1  1  v  -0.000117018756453  -5.01678600199e-05  0.000142129156898
3.37930988649  7.66215590224  5.62523580624  m  1  1  1  v  0.000108906941773  -6.09458007123e-05  2.81819804437e-05
7.79527777854  3.21695667367  1.21491842694  m  1  1  1  v  -7.45801223489e-05  2.94025939735e-05  -6.79482896765e-05
7.75247247203  3.19029528131  5.64766738321  m  1  1  1  v  -3.55419046184e-05  8.41944875745e-05  1.826897467e-05
7.88077897473  7.64670052486  1.22043869024  m  1  1  1  v  2.87416243712e-05  -1.92926239622e-05  -1.95952147779e-05
7.81782461081  7.62206255217  5.65743050141  m  1  1  1  v  2.81977368373e-05  4.84414514614e-05  -7.78387326854e-05
1.10744474155  1.08768603183  1.12444606925  m  1  1  1  v  9.48943994779e-05  0.000205275739288  0.000111417786207
1.0511807067  1.08840636747  5.55493302736  m  1  1  1  v  -8.13001061795e-06  0.000173068902979  -6.59015865891e-06
1.18263354115  5.50683742087  1.15624401345  m  1  1  1  v  -0.00016569518435  5.97307644881e-07  5.17023863138e-05
1.12776934471  5.50517501582  5.56835142751  m  1  1  1  v  -0.000178983242768  -6.58390340879e-07  1.24110072725e-06
5.56795716989  1.03468713837  1.17434473768  m  1  1  1  v  3.04131793871e-05  -0.000106999462402  -1.72847669989e-05
5.50186444639  0.999615694543  5.60215978939  m  1  1  1  v  -2.92757762578e-05  -1.80162812985e-05  -6.45523846049e-05
5.59323290896  5.44588801136  1.20550046843  m  1  1  1  v  1.33375173874e-05  -8.02782670443e-05  -5.68159940936e-05
5.55297478481  5.44536161647  5.63795232824  m  1  1  1  v  -3.67739428374e-05  0.00011932211889  3.56511618359e-05
1.12374502412  3.28546598608  3.35661317381  m  1  1  1  v  -4.2943736944e-06  0.000150367202066  4.56964954667e-05
1.07818694167  3.25614056974  7.80894970883  m  1  1  1  v  -3.34271214053e-05  -6.718440075e-05  -0.000101496333102
1.18047069782  7.73225427039  3.3711992301  m  1  1  1  v  -3.29413116107e-05  -4.80932546966e-05  -0.00014907242449
1.14735154023  7.6859005922  7.80740222933  m  1  1  1  v  4.50215843722e-05  -6.59803049471e-05  5.62972521717e-05
5.53918077486  3.22140652893  3.40293793546  m  1  1  1  v  1.16288013655e-05  2.43743198561e-05  -0.000154633518882
5.51127226027  3.21503686334  7.81544858439  m  1  1  1  v  5.35552754622e-05  4.30539117996e-05  -0.000112965391896
5.60723286869  7.68259802191  3.41500775657  m  1  1  1  v  9.3840870595e-05  3.25676818031e-05  -3.26389596858e-05
5.58093783304  7.63764434232  7.86378587659  m  1  1  1  v  4.87554324985e-05  -0.000209875902452  -6.13918303896e-05

C #label
0 #magnetism
32 #number of atoms
0.331629805488  8.63706272457  0.0894649144764  m  1  1  1  v  -0.000108781851408  0.000183396016169  0.00017422951166
0.278738934578  8.63646461737  4.52075043175  m  1  1  1  v  0.00013950236113  0.000137006622658  3.63779501669e-05
0.143396429602  4.32561666529  0.112158251149  m  1  1  1  v  -5.03371241585e-05  4.75655695408e-06  -0.000167685251679
0.118753740268  4.30099692333  4.55867045235  m  1  1  1  v  -1.38530544688e-05  -6.6755587575e-05  0.000105057107184
4.67244237309  8.69780994662  0.0630591887065  m  1  1  1  v  -0.000184696102882  0.000205116055512  0.000162427688423
4.62194780901  8.67513340595  4.49199600644  m  1  1  1  v  -6.80577470607e-05  -0.000133688145428  0.000140101576919
4.47266287635  4.38368243106  0.0719308187592  m  1  1  1  v  -0.000217384915848  -0.000172135419024  -0.000250584718168
4.45316482216  4.36311566587  4.50093299231  m  1  1  1  v  -0.000133951083275  0.00027273705554  0.00019605927864
0.109638056165  2.1049427332  2.32876784771  m  1  1  1  v  -2.14998605013e-05  5.03063164917e-05  -7.59083560544e-05
0.0538923675379  2.0444376567  6.76664240795  m  1  1  1  v  -5.60136145469e-05  0.000159136094585  8.38604060851e-06
0.17528372369  6.52193517797  2.34996755996  m  1  1  1  v  -0.000116014736656  8.74161898371e-05  0.000104289439189
0.126385306389  6.50332051208  6.76171928829  m  1  1  1  v  5.36456555367e-06  -2.14655778952e-05  0.000146475077036
4.43059659303  2.14814127717  2.26598059631  m  1  1  1  v  5.34686350243e-05  -0.000108704796157  0.000156885974636
4.40628642121  2.13369056117  6.70527296126  m  1  1  1  v  -0.000129785028886  -9.65942892264e-05  -0.00027725058983
4.50013163096  6.56611622833  2.28135926343  m  1  1  1  v  3.40683194632e-05  -0.000215274300379  0.000234794715683
4.46128626636  6.56778165832  6.71120132306  m  1  1  1  v  -0.000177387571421  -0.00022470433248  -0.000304647771127
2.41535436962  8.72430760071  2.25191760004  m  1  1  1  v  -0.000113370734903  -5.47305625289e-05  -0.000103689644801
2.12563477731  -0.0409661261492  6.69351155988  m  1  1  1  v  1.48472356024e-05  0.000141741895984  -0.000190146605617
2.25467283246  4.38603797296  2.28045731867  m  1  1  1  v  -9.47247364945e-05  -0.000236229157036  0.000160508223308
2.22354772616  4.374281305  6.68499095462  m  1  1  1  v  -0.000187638631289  9.67954059858e-05  -5.42520851525e-05
6.86373026421  8.66327021516  2.31433392787  m  1  1  1  v  -0.000172454258629  6.84823583615e-05  -2.02128562985e-06
6.82197922162  8.6328157456  6.70438362967  m  1  1  1  v  -8.05237662692e-05  0.000134066042392  2.28986449263e-05
6.71461514074  4.32760872294  2.29917717318  m  1  1  1  v  0.00013167750023  9.02258923216e-05  -0.000118293178778
6.64132518741  4.30154503785  6.73783336486  m  1  1  1  v  -4.4610575101e-05  0.000340164455716  0.000144033456604
2.24208955926  2.17290580985  0.0416760842363  m  1  1  1  v  5.18822512302e-05  1.01762345374e-05  -8.14243481349e-05
2.2218091142  2.16136690997  4.45551774401  m  1  1  1  v  -0.000119916843933  -0.000195008956245  9.12811846454e-05
2.29787365967  6.60995342821  0.0548396418007  m  1  1  1  v  -4.69897562045e-05  9.01996409333e-05  -5.78741773886e-05
2.2562396923  6.57386834128  4.4981133617  m  1  1  1  v  0.00013966452249  0.00012916560929  6.87490423108e-05
6.68025691048  2.14619047074  0.0873507805839  m  1  1  1  v  -8.29979533097e-05  -8.50453952485e-06  0.000172985469292
6.62983930109  2.10182107432  4.51768910706  m  1  1  1  v  7.9154506446e-05  -0.000162159896648  -5.30813190656e-05
6.73043358803  6.56970888188  0.118405782614  m  1  1  1  v  2.12693015147e-05  5.53656543449e-05  -8.33160253707e-05
6.69011666526  6.54235915962  4.52505860042  m  1  1  1  v  -8.29619203303e-06  4.34607713929e-05  2.94843138457e-05
