ATOMIC_SPECIES
Si 28.085 Si_ONCV_PBE-1.0.upf upf201
C 12.011 C_ONCV_PBE-1.0.upf upf201

NUMERICAL_ORBITAL
Si_gga_9au_100Ry_3s3p2d.orb
C_gga_9au_100Ry_3s3p2d.orb

LATTICE_CONSTANT
1.88972612546

LATTICE_VECTORS
8.76438024167 0 0 #latvec1
0.233798109659 8.75158289597 0 #latvec2
-0.172770053304 -0.104565336697 8.90578285018 #latvec3

ATOMIC_POSITIONS
Cartesian

Si #label
0 #magnetism
32 #number of atoms
3.31325664287  1.05043930735  3.37110897026  m  1  1  1  v  2.01770079589e-05  -6.57608105145e-06  1.39095932127e-05
3.24957804645  1.00471258426  7.80972307153  m  1  1  1  v  8.30615591861e-06  -1.58144801691e-05  2.77912654796e-05
3.3808187142  5.48122479349  3.40414189809  m  1  1  1  v  -5.11394045277e-05  1.26380563744e-05  -1.14840056858e-05
3.30630214953  5.46518532148  7.83605965491  m  1  1  1  v  4.96141886441e-05  -5.51006930217e-05  4.26432159899e-06
7.76071270313  1.00337725282  3.39898802901  m  1  1  1  v  1.3981931597e-05  3.70634720726e-05  -2.74168264091e-05
7.72171681499  0.958022066769  7.84250544787  m  1  1  1  v  -7.73241070022e-08  -6.90050982369e-06  6.15865379865e-06
7.80788527082  5.40997373572  3.42682170686  m  1  1  1  v  -3.58965021797e-05  -5.97242840941e-06  -2.11758762705e-07
7.75364439121  5.40297969249  7.87855547274  m  1  1  1  v  2.34993472503e-05  2.34035127965e-05  -3.99428281672e-05
3.37096937606  3.26326905299  1.15188075565  m  1  1  1  v  4.81841960591e-05  1.20144715974e-05  -1.56858076568e-06
3.29327843457  3.27749617768  5.59279857974  m  1  1  1  v  4.06927322086e-06  -1.6765463499e-05  2.32956136015e-05
3.42535881665  7.7099257086  1.19510157583  m  1  1  1  v  -3.95542596574e-06  4.13295679698e-05  -7.14952199395e-06
3.37389698469  7.66865894024  5.62956591218  m  1  1  1  v  1.46951061928e-05  -3.1339250761e-05  -2.41910611794e-05
7.79896222992  3.21584885154  1.2112708783  m  1  1  1  v  -6.47526364639e-06  -1.96149755154e-05  -2.81589208966e-05
7.75529047606  3.18875832984  5.65106984455  m  1  1  1  v  6.34691779131e-06  2.19435895493e-05  -9.08215779425e-06
7.87721780653  7.65084062275  1.22453857826  m  1  1  1  v  -9.59226192736e-06  -1.59733164086e-05  -4.43537373568e-05
7.80686583411  7.6255282398  5.65738723102  m  1  1  1  v  -5.22182108639e-07  -1.40244338753e-05  3.22663412498e-05
1.10366357964  1.08097437256  1.11868630693  m  1  1  1  v  -3.92118564325e-06  5.45610148414e-05  -4.34923931481e-07
1.05273001892  1.08069645164  5.54763858603  m  1  1  1  v  -2.20090657927e-05  -5.3545044529e-07  1.69975370252e-05
1.18234376349  5.50706162273  1.14905747592  m  1  1  1  v  2.00978039164e-07  6.24659718675e-06  -2.38537202989e-05
1.13036456353  5.49775160855  5.56031372514  m  1  1  1  v  1.69819284491e-05  3.52999992801e-05  -3.60001398044e-05
5.56710585722  1.04185304058  1.17964566781  m  1  1  1  v  4.89594820294e-06  -2.0523317423e-05  -5.42088695133e-06
5.50101025467  0.991288265233  5.6019992401  m  1  1  1  v  1.76307795907e-05  2.66566218539e-05  -1.40513262844e-05
5.59306244225  5.45160080169  1.20607499549  m  1  1  1  v  -1.39452949617e-05  1.09830283351e-05  -2.84603737904e-05
5.55857699999  5.43899458315  5.64607527959  m  1  1  1  v  2.5907775622e-05  1.544598437e-05  1.18033720827e-06
1.11942591447  3.28586368238  3.34852161292  m  1  1  1  v  2.15920527027e-06  2.49228455946e-05  -4.20510260939e-06
1.07497556638  3.25507199243  7.80067335869  m  1  1  1  v  1.17880211309e-05  -7.82244256971e-06  2.94142589223e-05
1.18146651764  7.73303801366  3.37042030207  m  1  1  1  v  -1.17780439914e-06  1.69858240707e-05  -3.73185656953e-06
1.13639500812  7.69748809675  7.8130772186  m  1  1  1  v  -4.55736898023e-05  5.10088508439e-05  -2.49860542668e-05
5.53352398115  3.22138341367  3.40130473249  m  1  1  1  v  1.22971176603e-05  -3.47424892603e-05  2.40722837765e-05
5.51002379852  3.21176864815  7.81939206116  m  1  1  1  v  -2.49934501961e-05  -5.18425507666e-06  -3.9190123572e-05
5.60222244486  7.67952188999  3.41858963101  m  1  1  1  v  -2.88503001617e-05  -1.29233618409e-05  3.42987239032e-05
5.58283616737  7.63959421504  7.86526188809  m  1  1  1  v  -6.06606577587e-05  1.41101308693e-06  3.926419669e-05

C #label
0 #magnetism
32 #number of atoms
0.344335449337  8.61982506679  0.0846127790246  m  1  1  1  v  5.14033805791e-05  -3.53975179349e-05  5.01615598597e-05
0.292837330919  8.61969178264  4.51628548795  m  1  1  1  v  -3.49564946104e-05  -2.72899728935e-05  -3.96639917282e-05
0.157342986723  4.32407277231  0.118302517935  m  1  1  1  v  1.11855563644e-05  -5.54331374466e-05  -2.85202011965e-05
0.136769403338  4.29922895592  4.55866681905  m  1  1  1  v  1.02670149018e-05  -1.13812066724e-05  9.17421495083e-06
4.67971627386  8.68538255379  0.0620930170948  m  1  1  1  v  -3.4564990281e-05  2.16206945678e-05  -2.69083881351e-05
4.62478078813  8.6632590964  4.47662769105  m  1  1  1  v  -6.61145009469e-06  -2.37718539561e-05  -2.21947894974e-05
4.48016975809  4.38730582698  0.0788129945168  m  1  1  1  v  2.42805038455e-05  2.72167701778e-05  1.51302756405e-06
4.45276831404  4.35766063769  4.50614721481  m  1  1  1  v  8.7689095425e-07  2.86096704786e-05  4.79244357726e-05
0.115773685482  2.09948009649  2.32491117037  m  1  1  1  v  -6.32455245672e-06  -2.95111270991e-05  -7.52984863861e-06
0.0584556812234  2.0394761282  6.76088284452  m  1  1  1  v  4.28953101311e-05  1.90035897295e-05  5.74391270615e-05
0.185116036634  6.52112075028  2.35589937459  m  1  1  1  v  5.99544140987e-06  -4.4977418739e-05  -4.45290602256e-05
0.124907848953  6.50728239961  6.76775113224  m  1  1  1  v  -2.17049546518e-05  -7.70098582005e-05  2.80687337577e-05
4.43560104477  2.14452856269  2.26088729184  m  1  1  1  v  7.8077306335e-05  -4.91752671965e-05  1.00554887098e-05
4.40664598903  2.11825445268  6.71298224535  m  1  1  1  v  -3.2330219295e-05  9.54760314657e-06  6.06049947329e-05
4.50729194382  6.57708486361  2.28963144666  m  1  1  1  v  1.09070153235e-08  4.06399991487e-05  5.07395758176e-05
4.45981699241  6.56766075583  6.71737637194  m  1  1  1  v  1.92861628598e-05  4.80724403036e-06  9.74149433452e-07
2.42465071598  8.71612833617  2.25647119405  m  1  1  1  v  7.28418113835e-05  7.96953246256e-07  -1.48459162896e-05
2.13662073536  -0.0537942334428  6.68599305078  m  1  1  1  v  5.35786845957e-06  3.08828604155e-05  -4.98106218971e-05
2.25845697814  4.39298578424  2.27924585301  m  1  1  1  v  1.5888781866e-05  -4.7517400958e-05  4.30355136038e-05
2.21240216472  4.37276992276  6.69152830386  m  1  1  1  v  -4.84089564358e-05  -2.56876038298e-05  -4.50283348848e-05
6.8717385061  8.64809064289  2.29786686619  m  1  1  1  v  -3.26623807208e-05  9.87912378403e-06  -4.73535894507e-05
6.81697890417  8.63684469837  6.70157591864  m  1  1  1  v  1.72878384077e-05  2.54460938929e-06  1.72216041491e-05
6.7019597058  4.33434637879  2.30717880739  m  1  1  1  v  -7.52639675946e-05  1.62555048001e-05  1.16192960044e-05
6.64642512022  4.28900106902  6.73796504492  m  1  1  1  v  -3.08144377278e-05  -2.69444770293e-05  9.29187560716e-05
2.2360492326  2.1779516872  0.0477548515518  m  1  1  1  v  1.77852848625e-05  -7.08398904615e-07  -1.82397431004e-05
2.22041438792  2.15763503467  4.4656716821  m  1  1  1  v  2.79222341792e-05  -6.29508099695e-05  3.99229741533e-05
2.29850147456  6.60724695335  0.047809792758  m  1  1  1  v  1.61708984036e-05  -1.70515722088e-05  7.68769641182e-05
2.25373859417  6.57380184296  4.49788152305  m  1  1  1  v  -1.54466266158e-05  -4.75494084166e-06  -7.56634806296e-05
6.68124443494  2.13924991359  0.0841246567788  m  1  1  1  v  1.4387864644e-05  -3.11479706246e-05  3.06544237109e-06
6.6333805907  2.10472861479  4.52394090481  m  1  1  1  v  -2.4696192286e-05  -2.63961180814e-05  6.35710686503e-05
6.73658529498  6.5602961885  0.115729550791  m  1  1  1  v  4.6622299377e-05  4.52199978439e-05  -2.14374462784e-05
6.67578293609  6.53962063919  4.53314120427  m  1  1  1  v  -4.9160368437e-05  5.45753590777e-05  5.97246082081e-05
