ATOMIC_SPECIES
Rh 102.9100 Rh_ONCV_PBE-1.0.upf upf201
C  12.0000 C_ONCV_PBE-1.0.upf upf201
O  16.0000 O_ONCV_PBE-1.0.upf upf201

NUMERICAL_ORBITAL
Rh_gga_7au_100Ry_4s2p2d1f.orb
C_gga_7au_100Ry_2s2p1d.orb
O_gga_7au_100Ry_2s2p1d.orb

LATTICE_CONSTANT
1.8897261246

LATTICE_VECTORS
        5.4353337924        0.0000000000        0.0000000000
        5.4353337924        9.4142742845        0.0000000000
        0.0000000000        0.0000000000       23.8758629152

ATOMIC_POSITIONS
Direct

Rh #label
0.0000   #magnetism
40 #number of atoms
        0.0000000000        0.0000000000        0.0000000000 m 0 0 0
        0.3333333333        0.1666666667        0.0929376139 m 0 0 0
        0.1666666667        0.0833333333        0.1858752278 m 0 0 0
        0.9986720326        0.0013070224        0.2785520416 m 1 1 1
        0.3335788991        0.1664205659        0.3686514743 m 1 1 1
        0.0000000000        0.2500000000        0.0000000000 m 0 0 0
        0.3333333333        0.4166666667        0.0929376139 m 0 0 0
        0.1666666667        0.3333333333        0.1858752278 m 0 0 0
        0.9988946680        0.2496352004        0.2788733685 m 1 1 1
        0.3306774537        0.4165464291        0.3684724729 m 1 1 1
        0.0000000000        0.5000000000        0.0000000000 m 0 0 0
        0.3333333333        0.6666666667        0.0929376139 m 0 0 0
        0.1666666667        0.5833333333        0.1858752278 m 0 0 0
        0.0005714264        0.4994179928        0.2779538108 m 1 1 1
        0.3334277208        0.6665668527        0.3768675647 m 1 1 1
        1.0000000000        0.7500000000        0.0000000000 m 0 0 0
        0.3333333333        0.9166666667        0.0929376139 m 0 0 0
        0.1666666667        0.8333333333        0.1858752278 m 0 0 0
        0.0017762613        0.7496716327        0.2788830399 m 1 1 1
        0.3361904374        0.9165675440        0.3684698562 m 1 1 1
        0.5000000000        0.0000000000        0.0000000000 m 0 0 0
        0.8333333333        0.1666666667        0.0929376139 m 0 0 0
        0.6666666667        0.0833333333        0.1858752278 m 0 0 0
        0.5005589588        0.9994191032        0.2779524249 m 1 1 1
        0.8334516163        0.1665504650        0.3768306980 m 1 1 1
        0.5000000000        0.2500000000        0.0000000000 m 0 0 0
        0.8333333333        0.4166666667        0.0929376139 m 0 0 0
        0.6666666667        0.3333333333        0.1858752278 m 0 0 0
        0.5017970126        0.2496385247        0.2788720057 m 1 1 1
        0.8362128116        0.4165563339        0.3684719606 m 1 1 1
        0.5000000000        0.5000000000        0.0000000000 m 0 0 0
        0.8333333333        0.6666666667        0.0929376139 m 0 0 0
        0.6666666667        0.5833333333        0.1858752278 m 0 0 0
        0.4986787987        0.5013111802        0.2785562751 m 1 1 1
        0.8335501300        0.6664422189        0.3686551640 m 1 1 1
        0.5000000000        0.7500000000        0.0000000000 m 0 0 0
        0.8333333333        0.9166666667        0.0929376139 m 0 0 0
        0.6666666667        0.8333333333        0.1858752278 m 0 0 0
        0.4988590800        0.7496659252        0.2788822262 m 1 1 1
        0.8306596129        0.9165613465        0.3684721640 m 1 1 1

C #label
0.0000   #magnetism
2 #number of atoms
        0.8334114828        0.1665898674        0.4531461295 m 1 1 1
        0.3334224005        0.6665781432        0.4531928535 m 1 1 1

O #label
0.0000   #magnetism
2 #number of atoms
        0.8333226102        0.1666784963        0.5017541609 m 1 1 1
        0.3333396364        0.6666651871        0.5018039488 m 1 1 1
