ATOMIC_SPECIES
Si 28.085 Si_ONCV_PBE-1.0.upf
C 12.011 C_ONCV_PBE-1.0.upf

LATTICE_CONSTANT
1.8897261254578281

LATTICE_VECTORS
9.475626615958017 0.0 0.0 
-4.593322032916398 7.771052100061507 0.0 
0.023417987954109255 0.11018665091515767 9.866287112891893 

ATOMIC_POSITIONS
Cartesian    # Cartesian(Unit is LATTICE_CONSTANT)
Si
0.0
36
0.025790743332 1.791787200251 2.508897518515 1 1 1
3.151605867151 7.087374398089 2.491259536097 1 1 1
-2.997315846752 7.133315726905 2.476103882413 1 1 1
4.659821678793 6.191122471883 4.978109596658 1 1 1
1.541844098810 0.883957960283 5.031176327231 1 1 1
7.694453144879 0.844155157995 5.033179827046 1 1 1
0.029044627102 1.813489986805 7.562926014273 1 1 1
3.131874522267 7.112206351779 7.510817723454 1 1 1
-2.988470523864 7.179886822563 7.526086862607 1 1 1
4.670787575439 6.222012221363 10.039191831249 1 1 1
1.569183553088 0.941687855256 10.068830890328 1 1 1
7.699376585516 0.871340458134 10.055056105847 1 1 1
-1.505416518161 4.447775630672 2.502519985590 1 1 1
1.565056422683 4.443440167894 2.502379065193 1 1 1
0.073030021879 7.116510242125 2.491537581592 1 1 1
6.175418440857 3.524767530453 5.028976295652 1 1 1
3.096079528579 3.546652455101 5.019234302960 1 1 1
4.609087447942 0.869789173314 5.017421892548 1 1 1
-1.503387898490 4.484575377928 7.497014069506 1 1 1
1.585540593357 4.465372264466 7.531067776246 1 1 1
0.074065837852 7.126302322358 7.508207531811 1 1 1
6.167028794698 3.543860689812 10.057724343341 1 1 1
3.118970120428 3.574827881863 10.057781593333 1 1 1
4.628079919228 0.899065900979 10.048608498646 1 1 1
3.089909514739 1.758330336338 2.495068173634 1 1 1
6.148984206684 1.733495330454 2.500290403660 1 1 1
4.639153074532 4.404249521809 2.502449933917 1 1 1
1.606066441321 6.236254108775 5.005662411656 1 1 1
-1.460970026982 6.266431398995 4.978119754811 1 1 1
0.043255354226 3.573157603193 5.013736176726 1 1 1
3.094061699010 1.776071698593 7.547788256638 1 1 1
6.177597098302 1.765085175738 7.539303749937 1 1 1
4.638033722643 4.433828540686 7.523338427930 1 1 1
1.605352670511 6.253121663536 10.038595336610 1 1 1
-1.477738554864 6.270290737142 10.054180150304 1 1 1
0.051628577184 3.597910203982 10.022422360102 1 1 1
C
0.0
36
0.013947450872 1.799415639008 4.401529232578 1 1 1
3.136778008053 7.094552554714 4.377471419505 1 1 1
-2.993453941205 7.153793814630 4.380113141343 1 1 1
4.674895115291 6.185775415646 6.885696255738 1 1 1
1.533429054626 0.903277959443 6.917899165414 1 1 1
7.683032659140 0.852661931709 6.912490996409 1 1 1
0.019775723258 1.833230117402 9.428794973813 1 1 1
3.132084315873 7.102245169549 9.403960002857 1 1 1
-2.992173498638 7.169638376964 9.412170703530 1 1 1
4.649252903964 6.169000138826 1.868905302071 1 1 1
1.545606518505 0.889527805396 1.880964330312 1 1 1
7.690792946098 0.851463395538 1.897985939811 1 1 1
-1.496809456478 4.457248970796 4.375485821271 1 1 1
1.580941342613 4.429930850893 4.394192155399 1 1 1
0.081158531344 7.112004530770 4.384238590437 1 1 1
6.183057536816 3.534789076938 6.905697130907 1 1 1
3.101913728027 3.560860034071 6.896861844474 1 1 1
4.645611052784 0.903915352970 6.903829853593 1 1 1
-1.480919010022 4.501245386539 9.422020171192 1 1 1
1.592583332782 4.462776030530 9.396519633373 1 1 1
0.067222695372 7.168993041147 9.384801847583 1 1 1
6.161028248747 3.502793585776 1.865377641127 1 1 1
3.106423773607 3.519245540245 1.881085598773 1 1 1
4.615953875565 0.834697961736 1.863367210059 1 1 1
3.075967212189 1.789553404866 4.388912828036 1 1 1
6.162276156327 1.740335117388 4.398776632417 1 1 1
4.655896789146 4.411341848075 4.385425072978 1 1 1
1.619318187393 6.221560741690 6.895129501261 1 1 1
-1.460491613244 6.243904112108 6.889638924887 1 1 1
0.045429557610 3.574507819696 6.897229848305 1 1 1
3.094839293461 1.786879141484 9.422028130108 1 1 1
6.165935247164 1.782743642265 9.420364078251 1 1 1
4.667036548667 4.459204985727 9.434450576925 1 1 1
1.590678735941 6.188741906193 1.852150984144 1 1 1
-1.470454736193 6.224657442370 1.887478466512 1 1 1
0.055313863183 3.555964695987 1.882937756215 1 1 1

NUMERICAL_ORBITAL
Si_gga_9au_100Ry_3s3p2d.orb
C_gga_9au_100Ry_3s3p2d.orb
