ATOMIC_SPECIES
Si 28.085 Si_ONCV_PBE-1.0.upf upf201
C 12.011 C_ONCV_PBE-1.0.upf upf201

NUMERICAL_ORBITAL
Si_gga_9au_100Ry_3s3p2d.orb
C_gga_9au_100Ry_3s3p2d.orb

LATTICE_CONSTANT
1.88972612546

LATTICE_VECTORS
8.62547662042 0 0 #latvec1
-0.156410140744 8.76961924431 0 #latvec2
-0.0883904347127 0.246037057568 8.92148884697 #latvec3

ATOMIC_POSITIONS
Cartesian

Si #label
0 #magnetism
32 #number of atoms
3.29812839451  1.18790674673  3.33058443145  m  1  1  1  v  3.94746920439e-05  -6.74762083091e-05  -5.02061714494e-07
3.27922254933  1.25369958902  7.76626417478  m  1  1  1  v  -4.43426991251e-05  0.000132364402413  6.80579726859e-05
3.24990029567  5.61700672456  3.26687041293  m  1  1  1  v  7.76102510791e-05  -9.37939547542e-05  4.95738468479e-05
3.22146205617  5.68752250567  7.70598952414  m  1  1  1  v  -0.000180314659307  8.75928277937e-05  4.17545531263e-05
7.73621261445  1.23897312426  3.33652598301  m  1  1  1  v  -7.75515625855e-05  -3.50936969986e-05  2.87797063625e-06
7.71261243215  1.28294714981  7.77830857789  m  1  1  1  v  3.55264699499e-05  -1.36294050515e-05  5.36400977901e-05
7.69192113078  5.65931144936  3.29095283046  m  1  1  1  v  -0.000112964020827  -7.34987182806e-05  0.000114955075487
7.67501861611  5.73669405817  7.71168304523  m  1  1  1  v  0.000177466373744  0.000124466768969  -0.000131105438197
3.28253604493  3.36348506603  1.08842410196  m  1  1  1  v  -0.000163696126402  -0.00016886758209  -3.25805452519e-05
3.26571127039  3.43861168316  5.50711388301  m  1  1  1  v  -6.26478684991e-06  -4.49445490958e-05  8.55213693351e-06
3.24253984437  7.80323631363  1.01653408059  m  1  1  1  v  -0.00016173224993  -4.98612770799e-05  0.000189966627277
3.23104405227  7.85717490456  5.46038974102  m  1  1  1  v  6.77184636642e-05  -6.63404579889e-05  6.9524215634e-05
7.72340201087  3.4151871289  1.0974094747  m  1  1  1  v  -8.04452175721e-05  2.38747652324e-05  -6.57902620087e-05
7.70103887664  3.4704346474  5.53341614647  m  1  1  1  v  -4.07169945996e-05  8.3667982892e-05  2.02614835412e-05
7.68470639331  7.84128276745  1.03801120712  m  1  1  1  v  -1.69969547516e-05  -2.51046067351e-05  1.92568197828e-05
7.66983712297  7.90422029062  5.47779782092  m  1  1  1  v  -2.8048751724e-05  4.73119879102e-05  -2.96219399329e-05
1.10011676047  1.14316505502  1.10524722002  m  1  1  1  v  0.000135120093812  0.000239148702651  0.000119155341732
1.07393834243  1.20652086554  5.54102958241  m  1  1  1  v  2.88356850336e-05  0.000217519898004  6.0121579688e-06
1.06065546918  5.57065225863  1.04274598861  m  1  1  1  v  -0.000125677118385  3.24635727735e-05  6.54848391511e-05
1.03780740182  5.6375825306  5.47434351799  m  1  1  1  v  -0.000140439055392  3.66509179733e-05  8.68334717793e-06
5.53240562772  1.16716963412  1.11327290028  m  1  1  1  v  3.55877336366e-05  -0.000103558574244  -1.81828009166e-05
5.50797959081  1.24022437116  5.55368839163  m  1  1  1  v  -2.61197606013e-05  -2.10611242769e-05  -7.03739291288e-05
5.48583456752  5.59950673442  1.05397570846  m  1  1  1  v  8.0500069052e-06  -8.35765557499e-05  -5.49639905404e-05
5.46255221691  5.67317954132  5.48973710859  m  1  1  1  v  -4.08946087748e-05  0.000122290160103  3.87590053806e-05
1.06513615843  3.38108818879  3.29380816648  m  1  1  1  v  3.19015401505e-05  0.000183800516863  5.90188402869e-05
1.04951742632  3.44835419276  7.73393121609  m  1  1  1  v  5.54691348266e-07  -1.46076471031e-05  -8.30295596537e-05
1.02327313937  7.82704914971  3.22715202998  m  1  1  1  v  -5.16561030124e-05  -6.64341515484e-06  -8.15041766901e-05
1.00779274324  7.87577544677  7.65889751084  m  1  1  1  v  3.12727598396e-05  -1.3590822229e-05  0.000123830569286
5.49592925323  3.41876874284  3.30338558924  m  1  1  1  v  6.06329315947e-06  2.30016385334e-05  -0.000154591952902
5.48186563571  3.48383271693  7.73532383415  m  1  1  1  v  4.89086857958e-05  6.65188538896e-05  -0.000120054976068
5.45346700428  7.85607230083  3.24293996599  m  1  1  1  v  3.8473787941e-05  3.91331196786e-05  1.63746960853e-05
5.42724727652  7.92349005011  7.68833635118  m  1  1  1  v  6.50329076241e-06  -0.00019962046427  -2.32091856897e-05

C #label
0 #magnetism
32 #number of atoms
0.239778621191  0.0824645972676  0.0325485656405  m  1  1  1  v  -6.5128690576e-05  4.54087531533e-05  1.32008331181e-05
0.212421190226  0.152994981677  4.46546274358  m  1  1  1  v  0.000188665130777  3.81140494455e-05  -0.000141271730225
0.0961667215779  4.75482930487  8.89714922103  m  1  1  1  v  -0.000126954245843  -0.000126089492704  -0.000211130289238
0.161566513845  4.57255323294  4.41497181922  m  1  1  1  v  -7.94485558851e-05  -0.000140082591747  7.44840253365e-05
4.44774645126  0.0478513582225  0.0126226647194  m  1  1  1  v  -7.45355656944e-05  0.000168691862656  7.66536315119e-05
4.26762422368  8.88243020132  4.4596706551  m  1  1  1  v  5.81787961369e-05  -0.00013915600513  2.60769838254e-05
4.29754565386  4.7153276648  8.87525936006  m  1  1  1  v  -0.000218160181378  -0.000210897463321  -0.000235202781332
4.37438321298  4.54335857057  4.38995549035  m  1  1  1  v  -0.000130110137557  0.000277911271425  0.000196880168146
0.196709097295  2.32861718237  2.22430553364  m  1  1  1  v  -9.78245410156e-05  -3.11024946676e-05  -0.000104544544895
0.173383611289  2.38391638385  6.669244266  m  1  1  1  v  -0.000132814632846  5.8866559775e-05  -2.89184055006e-05
0.157374905986  6.75185777154  2.16296529748  m  1  1  1  v  -0.000200998337545  6.94819137395e-06  8.98701871372e-05
0.141104855101  6.81673591128  6.59035961575  m  1  1  1  v  -7.59504394821e-05  -9.60749848049e-05  0.000118129452755
4.40517709555  2.29513450352  2.21500356978  m  1  1  1  v  4.37592470938e-05  -0.000111671605562  0.000145335892789
4.38274333781  2.36719250927  6.63995906778  m  1  1  1  v  -0.000110256818953  -9.28303915629e-05  -0.000272950506505
4.35692054437  6.71169172105  2.13756204245  m  1  1  1  v  2.91362394943e-05  -0.000219099763804  0.00023398405922
4.33764488841  6.78766684457  6.57114748655  m  1  1  1  v  -0.000179398157423  -0.000209731905869  -0.000306720203642
2.05243880401  8.82750306205  2.21380926836  m  1  1  1  v  5.91517152384e-06  -3.58433893028e-05  -0.000201637230821
2.02866447652  8.89910700264  6.66055065336  m  1  1  1  v  0.000125691294751  0.000179009418705  -0.000277734736543
2.16845532463  4.47893057175  2.17283235683  m  1  1  1  v  -0.000103869647488  -0.000222878880298  0.000174464057284
2.15153731069  4.5532563774  6.59071789146  m  1  1  1  v  -0.00017287797669  0.000108499392001  -5.27721876151e-05
6.64441443007  0.107576153637  2.26437974382  m  1  1  1  v  -6.41675910689e-05  6.44813304991e-05  -0.000101300995034
6.48221268258  8.92422853491  6.67295554379  m  1  1  1  v  3.19532822583e-05  0.000132269590147  -0.000100976644345
6.61929122177  4.5205184523  2.18130269743  m  1  1  1  v  0.000139487234111  9.00281134002e-05  -0.000118628213267
6.57408067005  4.59937564929  6.62388385287  m  1  1  1  v  -4.33563677526e-05  0.000321989396394  0.000142895235315
2.11216739259  2.46788374884  8.89849227068  m  1  1  1  v  6.26446912623e-05  -2.38603856475e-05  -6.74578506279e-05
2.18473549533  2.29727669547  4.40243434218  m  1  1  1  v  -0.000104027526374  -0.000187893627077  9.67894955802e-05
2.07048563169  6.91533875933  8.84420391759  m  1  1  1  v  -5.92071434401e-05  4.53369931408e-05  -5.03495070634e-05
2.13954426078  6.73431932088  4.35900986127  m  1  1  1  v  0.000121232619673  0.000121735422025  8.66707634848e-05
6.62694350064  2.28467002072  0.00939479013373  m  1  1  1  v  -7.9943215254e-05  -5.65378826614e-05  0.000184458454582
6.6110286995  2.33983871255  4.42912521376  m  1  1  1  v  7.54017222999e-05  -0.000166127367334  -3.83192507858e-05
6.49655425416  6.9597678703  8.87022230108  m  1  1  1  v  9.44488708696e-06  1.1464311227e-05  -6.30866656205e-05
6.58246860376  6.77762677125  4.36916965831  m  1  1  1  v  -3.02063866123e-05  4.34691302998e-05  4.47451802026e-05
