ATOMIC_SPECIES
Si 28.085 Si_ONCV_PBE-1.0.upf upf201
C 12.011 C_ONCV_PBE-1.0.upf upf201

NUMERICAL_ORBITAL
Si_gga_9au_100Ry_3s3p2d.orb
C_gga_9au_100Ry_3s3p2d.orb

LATTICE_CONSTANT
1.88972612546

LATTICE_VECTORS
8.62547662042 0 0 #latvec1
-0.156410140744 8.76961924431 0 #latvec2
-0.0883904347127 0.246037057568 8.92148884697 #latvec3

ATOMIC_POSITIONS
Cartesian

Si #label
0 #magnetism
32 #number of atoms
3.30156387649  1.19213171642  3.32980440671  m  1  1  1  v  2.01770079589e-05  -6.57608105145e-06  1.39095932127e-05
3.27708425356  1.24487146745  7.76477471997  m  1  1  1  v  8.30615591861e-06  -1.58144801691e-05  2.77912654796e-05
3.25640474472  5.62066229585  3.26682771601  m  1  1  1  v  -5.11394045277e-05  1.26380563744e-05  -1.14840056858e-05
3.23050947432  5.68330764116  7.70029238919  m  1  1  1  v  4.96141886441e-05  -5.51006930217e-05  4.26432159899e-06
7.74020957161  1.23122453885  3.34600647156  m  1  1  1  v  1.3981931597e-05  3.70634720726e-05  -2.74168264091e-05
7.71344119051  1.28736654153  7.7834724823  m  1  1  1  v  -7.73241070022e-08  -6.90050982369e-06  6.15865379865e-06
7.69629966644  5.6573755913  3.28813110368  m  1  1  1  v  -3.58965021797e-05  -5.97242840941e-06  -2.11758762705e-07
7.67252158396  5.72428710134  7.71651028179  m  1  1  1  v  2.34993472503e-05  2.34035127965e-05  -3.99428281672e-05
3.29283499269  3.37351613278  1.08324025308  m  1  1  1  v  4.81841960591e-05  1.20144715974e-05  -1.56858076568e-06
3.26283226101  3.4389918759  5.5163691923  m  1  1  1  v  4.06927322086e-06  -1.6765463499e-05  2.32956136015e-05
3.25011842984  7.80958867841  1.01216781966  m  1  1  1  v  -3.95542596574e-06  4.13295679698e-05  -7.14952199395e-06
3.23009327204  7.86412573443  5.46025448268  m  1  1  1  v  1.46951061928e-05  -3.1339250761e-05  -2.41910611794e-05
7.72759519017  3.41456476026  1.09355167506  m  1  1  1  v  -6.47526364639e-06  -1.96149755154e-05  -2.81589208966e-05
7.70433121573  3.46889980889  5.53660337162  m  1  1  1  v  6.34691779131e-06  2.19435895493e-05  -9.08215779425e-06
7.68603636424  7.84586028707  1.03786918556  m  1  1  1  v  -9.59226192736e-06  -1.59733164086e-05  -4.43537373568e-05
7.66461057429  7.90784319376  5.47278839074  m  1  1  1  v  -5.22182108639e-07  -1.40244338753e-05  3.22663412498e-05
1.09207873954  1.13272866278  1.09839683686  m  1  1  1  v  -3.92118564325e-06  5.45610148414e-05  -4.34923931481e-07
1.0715802946  1.19407131541  5.53214266705  m  1  1  1  v  -2.20090657927e-05  -5.3545044529e-07  1.69975370252e-05
1.0560358441  5.56729578897  1.03384588324  m  1  1  1  v  2.00978039164e-07  6.24659718675e-06  -2.38537202989e-05
1.03625422671  5.62610430208  5.46528882721  m  1  1  1  v  1.69819284491e-05  3.52999992801e-05  -3.60001398044e-05
5.53110243485  1.17395595143  1.11863461216  m  1  1  1  v  4.89594820294e-06  -2.0523317423e-05  -5.42088695133e-06
5.5068555892  1.23221016521  5.55405913693  m  1  1  1  v  1.76307795907e-05  2.66566218539e-05  -1.40513262844e-05
5.48618984936  5.60552195839  1.05439648419  m  1  1  1  v  -1.39452949617e-05  1.09830283351e-05  -2.84603737904e-05
5.46857607514  5.66651152501  5.49756469569  m  1  1  1  v  2.5907775622e-05  1.544598437e-05  1.18033720827e-06
1.05707469225  3.37796019687  3.28418638412  m  1  1  1  v  2.15920527027e-06  2.49228455946e-05  -4.20510260939e-06
1.04268828672  3.44180459769  7.72356454337  m  1  1  1  v  1.17880211309e-05  -7.82244256971e-06  2.94142589223e-05
1.02629565789  7.82346064412  3.21893430873  m  1  1  1  v  -1.17780439914e-06  1.69858240707e-05  -3.73185656953e-06
0.998413739019  7.88171316203  7.65710518292  m  1  1  1  v  -4.55736898023e-05  5.10088508439e-05  -2.49860542668e-05
5.49085145985  3.41887687581  3.30173673159  m  1  1  1  v  1.22971176603e-05  -3.47424892603e-05  2.40722837765e-05
5.48114108452  3.47818749185  7.74001969027  m  1  1  1  v  -2.49934501961e-05  -5.18425507666e-06  -3.9190123572e-05
5.45428562633  7.85215975541  3.24132668752  m  1  1  1  v  -2.88503001617e-05  -1.29233618409e-05  3.42987239032e-05
5.43364880652  7.92455189313  7.68573621439  m  1  1  1  v  -6.06606577587e-05  1.41101308693e-06  3.926419669e-05

C #label
0 #magnetism
32 #number of atoms
0.247721052345  0.0801422078524  0.0459305633688  m  1  1  1  v  5.14033805791e-05  -3.53975179349e-05  5.01615598597e-05
0.221432318527  0.147104704142  4.4804165807  m  1  1  1  v  -3.49564946104e-05  -2.72899728935e-05  -3.96639917282e-05
0.118668383826  4.76733896243  8.90853848405  m  1  1  1  v  1.11855563644e-05  -5.54331374466e-05  -2.85202011965e-05
0.186794815449  4.57892326919  4.41884024511  m  1  1  1  v  1.02670149018e-05  -1.13812066724e-05  9.17421495083e-06
4.4431847218  0.0387299585337  0.0209699769387  m  1  1  1  v  -3.4564990281e-05  2.16206945678e-05  -2.69083881351e-05
4.25685171072  8.87139356053  4.4566250756  m  1  1  1  v  -6.61145009469e-06  -2.37718539561e-05  -2.21947894974e-05
4.30509331759  4.72292213219  8.88049995114  m  1  1  1  v  2.42805038455e-05  2.72167701778e-05  1.51302756405e-06
4.37353042648  4.53738816734  4.39506353016  m  1  1  1  v  8.7689095425e-07  2.86096704786e-05  4.79244357726e-05
0.210916160482  2.33180207791  2.223737015  m  1  1  1  v  -6.32455245672e-06  -2.95111270991e-05  -7.52984863861e-06
0.186255602913  2.3897650755  6.66777181831  m  1  1  1  v  4.28953101311e-05  1.90035897295e-05  5.74391270615e-05
0.176364185165  6.75984269288  2.17089579752  m  1  1  1  v  5.99544140987e-06  -4.4977418739e-05  -4.45290602256e-05
0.148412033594  6.82892352152  6.59972880359  m  1  1  1  v  -2.17049546518e-05  -7.70098582005e-05  2.80687337577e-05
4.41113178401  2.29184394518  2.21107817034  m  1  1  1  v  7.8077306335e-05  -4.91752671965e-05  1.00554887098e-05
4.38107075472  2.35135557459  6.6472409488  m  1  1  1  v  -3.2330219295e-05  9.54760314657e-06  6.06049947329e-05
4.36456657675  6.72303903046  2.14590114749  m  1  1  1  v  1.09070153235e-08  4.06399991487e-05  5.07395758176e-05
4.33632179005  6.78597811545  6.57755083007  m  1  1  1  v  1.92861628598e-05  4.80724403036e-06  9.74149433452e-07
2.04901183416  8.81704031996  2.22887382052  m  1  1  1  v  7.28418113835e-05  7.96953246256e-07  -1.48459162896e-05
2.02772971802  8.88279658353  6.6625827178  m  1  1  1  v  5.35786845957e-06  3.08828604155e-05  -4.98106218971e-05
2.17322084212  4.48452754129  2.17015386445  m  1  1  1  v  1.5888781866e-05  -4.7517400958e-05  4.30355136038e-05
2.13889317419  4.55052511058  6.59709340148  m  1  1  1  v  -4.84089564358e-05  -2.56876038298e-05  -4.50283348848e-05
6.64072117255  0.093185351312  2.25863653955  m  1  1  1  v  -3.26623807208e-05  9.87912378403e-06  -4.73535894507e-05
6.46539745073  8.92797434729  6.68315239072  m  1  1  1  v  1.72878384077e-05  2.54460938929e-06  1.72216041491e-05
6.60580499091  4.52720871215  2.18931166492  m  1  1  1  v  -7.52639675946e-05  1.62555048001e-05  1.16192960044e-05
6.5790003558  4.58873262487  6.62415231707  m  1  1  1  v  -3.08144377278e-05  -2.69444770293e-05  9.29187560716e-05
2.10517890522  2.47639344911  8.90303341735  m  1  1  1  v  1.77852848625e-05  -7.08398904615e-07  -1.82397431004e-05
2.18179008673  2.29282844884  4.4119941075  m  1  1  1  v  2.79222341792e-05  -6.29508099695e-05  3.99229741533e-05
2.07244793034  6.91717259841  8.83631709588  m  1  1  1  v  1.61708984036e-05  -1.70515722088e-05  7.68769641182e-05
2.13900795147  6.73503214491  4.35688320762  m  1  1  1  v  -1.54466266158e-05  -4.75494084166e-06  -7.56634806296e-05
6.62750864601  2.28269299303  0.00493335672198  m  1  1  1  v  1.4387864644e-05  -3.11479706246e-05  3.06544237109e-06
6.61492868557  2.34312826912  4.43384476444  m  1  1  1  v  -2.4696192286e-05  -2.63961180814e-05  6.35710686503e-05
6.50380005915  6.95483080289  8.86550539623  m  1  1  1  v  4.6622299377e-05  4.52199978439e-05  -2.14374462784e-05
6.57027490409  6.7748597333  4.37571149137  m  1  1  1  v  -4.9160368437e-05  5.45753590777e-05  5.97246082081e-05
