ATOMIC_SPECIES
Si 28.085 Si_ONCV_PBE-1.0.upf
C 12.011 C_ONCV_PBE-1.0.upf

LATTICE_CONSTANT
1.8897261254578281

LATTICE_VECTORS
8.589659033540645 0.0 0.0 
-0.21806680888270752 8.750711912065153 0.0 
-0.24984231329529938 0.16770957339343412 8.913357190484716 

ATOMIC_POSITIONS
Cartesian    # Cartesian(Unit is LATTICE_CONSTANT)
Si
0.0
32
3.237546422021 1.167995018964 3.325209099055 1 1 1
3.173654930278 1.216299902734 7.718158696964 1 1 1
3.177006106687 5.559430552458 3.289052150192 1 1 1
3.116292696510 5.604144794056 7.679853593667 1 1 1
7.623557652613 1.225166763506 3.391495132392 1 1 1
7.561915957229 1.264478843130 7.781068898373 1 1 1
7.569777446001 5.619362380030 3.346867227040 1 1 1
7.511099895763 5.652812712190 7.733963399913 1 1 1
3.240714016536 3.341754162661 1.120810692604 1 1 1
3.171974343569 3.390434796713 5.508315233281 1 1 1
3.180627465098 7.730441663768 1.065872673237 1 1 1
3.126159036020 7.779180032352 5.459943517680 1 1 1
7.628677283354 3.403809134824 1.167497808761 1 1 1
7.565273016654 3.442072191835 5.565608795475 1 1 1
7.574778979135 7.793947220689 1.135210087780 1 1 1
7.512042689397 7.834323183394 5.524096640693 1 1 1
1.071082174835 1.127327220715 1.096880732806 1 1 1
1.005791942755 1.163819855831 5.493709556371 1 1 1
1.020896504796 5.516207192372 1.059743320128 1 1 1
0.948617828127 5.553531195148 5.449958508283 1 1 1
5.457653887149 1.173705971382 1.165249356065 1 1 1
5.397302128744 1.219629350063 5.553328693953 1 1 1
5.403603577409 5.569321674293 1.120965977852 1 1 1
5.347232421390 5.614549284172 5.510172831185 1 1 1
1.006699485048 3.336895004712 3.273325242812 1 1 1
0.948566156919 3.385748906914 7.672960100481 1 1 1
0.957234780617 7.729406409957 3.233503844859 1 1 1
0.891107150828 7.766181728092 7.631587119529 1 1 1
5.401691066011 3.392378899019 3.337786524781 1 1 1
5.339966469337 3.429070593719 7.725625760245 1 1 1
5.344215041114 7.783595322485 3.295464637932 1 1 1
5.278153073276 7.827296207840 7.684818219684 1 1 1
C
0.0
32
8.785341680831 0.112732036210 0.123252410687 1 1 1
8.719595964511 0.154569673176 4.516199454642 1 1 1
8.725433469864 4.505611388509 0.089885402600 1 1 1
8.660230903822 4.541665808459 4.470593502911 1 1 1
4.394122188639 0.051402600567 0.058028739399 1 1 1
4.335604301496 0.099961960576 4.450990541471 1 1 1
4.342717374403 4.450595060202 0.020113184239 1 1 1
4.272255730572 4.487708829454 4.407780522701 1 1 1
8.725177509454 2.329817921779 2.300760121805 1 1 1
8.659632250963 2.367208709094 6.684787659084 1 1 1
8.671262823695 6.722741072249 2.261040234629 1 1 1
8.612276817223 6.756762827155 6.643239524205 1 1 1
4.327957035573 2.266637655280 2.231773314788 1 1 1
4.273957936061 2.312124184648 6.630608035461 1 1 1
4.279906978518 6.659402655081 2.199715217752 1 1 1
4.215262072744 6.704404025232 6.584930741989 1 1 1
2.168799143596 0.051767858196 2.229649132283 1 1 1
2.102940498643 0.089834657923 6.618659225136 1 1 1
2.109011133018 4.436372017390 2.185574107824 1 1 1
2.049491072238 4.485544591435 6.576801904874 1 1 1
6.552940705255 0.104739471515 2.290370599299 1 1 1
6.496151857901 0.141288878409 6.675705289007 1 1 1
6.502262698477 4.495934282846 2.244714151819 1 1 1
6.437935642320 4.535794322954 6.637505627599 1 1 1
2.162536312118 2.223451913173 0.004806134790 1 1 1
2.111470118626 2.269875431131 4.402102550265 1 1 1
2.119216455583 6.611216527385 -0.029855994539 1 1 1
2.049124658905 6.661929981071 4.355835586122 1 1 1
6.563281583113 2.274468704603 0.071879550781 1 1 1
6.496704110222 2.320267295807 4.462777061184 1 1 1
6.503308169830 6.667700836422 0.030868022604 1 1 1
6.436773802728 6.712270062122 4.424158646864 1 1 1

NUMERICAL_ORBITAL
Si_gga_9au_100Ry_3s3p2d.orb
C_gga_9au_100Ry_3s3p2d.orb
