INPUT_PARAMETERS
calculation scf
ecutwfc 100.000000
scf_thr 1.000000e-06
scf_nmax 100
basis_type lcao
dft_functional hse
gamma_only 1
mixing_type broyden
mixing_beta 0.400000
symmetry 0
nspin 1
smearing_method fixed
smearing_sigma 0.001000
cal_force 1
cal_stress 0
out_dos 0
deepks_out_labels 2
deepks_scf 0
deepks_bandgap 0
deepks_v_delta 1
out_wfc_lcao 0
