ATOMIC_SPECIES
O 1.00 ../../../psp_orb/O_ONCV_PBE-1.0.upf
H 1.00 ../../../psp_orb/H_ONCV_PBE-1.0.upf

LATTICE_CONSTANT
1

LATTICE_VECTORS
37.7945375554 0.0 0.0 
0.0 37.7945375554 0.0 
0.0 0.0 37.7945375554 

ATOMIC_POSITIONS
Cartesian

O
0.0
2
35.664214963781 36.789648616380 36.263585521608 0 0 0
1.764059228910 0.904752621323 1.450936159015 0 0 0
H
0.0
4
36.499446851089 36.841840019204 34.679242090706 0 0 0
37.148629416291 37.351523262803 37.216612810641 0 0 0
1.558335306206 2.705113667598 1.771154749928 0 0 0
1.742865934953 0.301949678485 3.198418723764 0 0 0

NUMERICAL_ORBITAL
../../../psp_orb/O_gga_7au_100Ry_2s2p1d.orb
../../../psp_orb/H_gga_6au_100Ry_2s1p.orb

NUMERICAL_DESCRIPTOR
../../../psp_orb/jle.orb
