ATOMIC_SPECIES
Si 28.085 Si_ONCV_PBE-1.0.upf
C 12.011 C_ONCV_PBE-1.0.upf

LATTICE_CONSTANT
1.8897261254578281

LATTICE_VECTORS
8.928385012384158 0.0 0.0 
0.14656812790626966 8.829346432986897 0.0 
-0.22582525303812606 -0.15001946074835842 8.712513187158278 

ATOMIC_POSITIONS
Cartesian    # Cartesian(Unit is LATTICE_CONSTANT)
Si
0.0
32
3.234323518677 1.041732589943 3.320454952305 1 1 1
3.176511849681 1.001094103347 7.651481954500 1 1 1
3.262390972425 5.378817349072 3.361670267847 1 1 1
3.203436272078 5.340016524824 7.698823098870 1 1 1
7.592448385253 1.001296000333 3.376725082748 1 1 1
7.524408548453 0.961339290621 7.716421947980 1 1 1
7.611635944622 5.361205135828 3.404433469678 1 1 1
7.560175746048 5.306520750989 7.762497391707 1 1 1
3.283522011936 3.238544823019 1.151304973566 1 1 1
3.221644524514 3.201885564866 5.491562933104 1 1 1
3.298454685417 7.558510885954 1.195383354989 1 1 1
3.253124047605 7.542676680079 5.532036344088 1 1 1
7.620381141150 3.169301440004 1.206732311425 1 1 1
7.576564711279 3.148655701241 5.549985098535 1 1 1
7.679605944560 7.534963281101 1.239309754779 1 1 1
7.590933317427 7.489874590599 5.607740724094 1 1 1
1.080118960940 1.063025774437 1.102441462793 1 1 1
1.045462754976 1.032503935497 5.469818717521 1 1 1
1.104261705388 5.428900987611 1.146003366230 1 1 1
1.069291966836 5.378263173710 5.501272902059 1 1 1
5.432366752591 1.027373150857 1.179797949756 1 1 1
5.374758411022 0.992735584693 5.517236961130 1 1 1
5.484529794468 5.369821345069 1.204164688846 1 1 1
5.399602908702 5.349007311609 5.556046879873 1 1 1
1.082101164649 3.217495556727 3.314639041784 1 1 1
1.007201951523 3.212699407494 7.656962748721 1 1 1
1.124377117020 7.580560217396 3.330120871285 1 1 1
1.051609061676 7.527049598629 7.701663252581 1 1 1
5.431881837491 3.190260643972 3.346886860238 1 1 1
5.358660572198 3.159745747121 7.714928749018 1 1 1
5.455753653842 7.528117159266 3.371119752239 1 1 1
5.395458571959 7.503981691527 7.746370539831 1 1 1
C
0.0
32
8.693618596315 -0.068008755829 0.119282365897 1 1 1
8.641899994549 -0.116994405648 4.451973847132 1 1 1
8.739460199202 4.266535600384 0.145634106246 1 1 1
8.686887276640 4.227207983327 4.503441146966 1 1 1
4.360922373343 -0.034786702536 0.053325564776 1 1 1
4.300843315332 -0.087742832313 4.406887695637 1 1 1
4.387704132416 4.312121467508 0.096707002206 1 1 1
4.302888630893 4.277862853303 4.435493796303 1 1 1
8.665970824996 2.101466493584 2.301099373088 1 1 1
8.618117869241 2.050195584067 6.665431709780 1 1 1
8.721505598966 6.427178282380 2.327900826504 1 1 1
8.666753237528 6.403194487883 6.700424500515 1 1 1
4.350035456606 2.120474698289 2.263765432021 1 1 1
4.285533278864 2.078712760673 6.595584634836 1 1 1
4.384032987315 6.451710157449 2.270616240891 1 1 1
4.318557028128 6.435860408520 6.623966949055 1 1 1
2.146339977650 -0.047367384814 2.201800203019 1 1 1
2.080737346612 -0.076891312766 6.567273710535 1 1 1
2.181367720697 4.302789326011 2.242038151070 1 1 1
2.128625072954 4.271595400948 6.599380394700 1 1 1
6.479206885858 -0.063407510996 2.258669268897 1 1 1
6.447858500329 -0.118761066982 6.605879311275 1 1 1
6.532774450953 4.270396194041 2.308050894770 1 1 1
6.477742171578 4.235213790678 6.640575097258 1 1 1
2.203939849193 2.143567654722 0.049143701480 1 1 1
2.117535329227 2.100681932313 4.391221554804 1 1 1
2.237936888719 6.497569251692 0.095133260028 1 1 1
2.159015738442 6.452623414608 4.434800640810 1 1 1
6.534595487422 2.123600484604 0.103893496287 1 1 1
6.482059432466 2.089233322045 4.444137586799 1 1 1
6.581731647283 6.457672287472 0.142767052790 1 1 1
6.528411036345 6.415963369498 4.486149398258 1 1 1

NUMERICAL_ORBITAL
Si_gga_9au_100Ry_3s3p2d.orb
C_gga_9au_100Ry_3s3p2d.orb
