ATOMIC_SPECIES
Si 28.085 Si_ONCV_PBE-1.0.upf upf201
C 12.011 C_ONCV_PBE-1.0.upf upf201

NUMERICAL_ORBITAL
Si_gga_9au_100Ry_3s3p2d.orb
C_gga_9au_100Ry_3s3p2d.orb

LATTICE_CONSTANT
1.88972612546

LATTICE_VECTORS
8.69555162629 -7.7580549857e-15 -1.09560772152e-15 #latvec1
-7.7580549857e-15 8.69555162629 -1.87164355568e-15 #latvec2
-1.09560772152e-15 -1.87164355568e-15 8.69555162629 #latvec3

ATOMIC_POSITIONS
Cartesian

Si #label
0 #magnetism
32 #number of atoms
3.26083185986  1.08694395329  3.26083185984  m  1  1  1  v  2.01770079589e-05  -6.57608105145e-06  1.39095932127e-05
3.26083185986  1.08694395329  7.60860767302  m  1  1  1  v  8.30615591861e-06  -1.58144801691e-05  2.77912654796e-05
3.26083185986  5.43471976643  3.26083185984  m  1  1  1  v  -5.11394045277e-05  1.26380563744e-05  -1.14840056858e-05
3.26083185986  5.43471976643  7.60860767302  m  1  1  1  v  4.96141886441e-05  -5.51006930217e-05  4.26432159899e-06
7.608607673  1.08694395329  3.26083185984  m  1  1  1  v  1.3981931597e-05  3.70634720726e-05  -2.74168264091e-05
7.608607673  1.08694395329  7.60860767302  m  1  1  1  v  -7.73241070022e-08  -6.90050982369e-06  6.15865379865e-06
7.608607673  5.43471976643  3.26083185984  m  1  1  1  v  -3.58965021797e-05  -5.97242840941e-06  -2.11758762705e-07
7.608607673  5.43471976643  7.60860767302  m  1  1  1  v  2.34993472503e-05  2.34035127965e-05  -3.99428281672e-05
3.26083185986  3.26083185984  1.0869439533  m  1  1  1  v  4.81841960591e-05  1.20144715974e-05  -1.56858076568e-06
3.26083185986  3.26083185984  5.43471976641  m  1  1  1  v  4.06927322086e-06  -1.6765463499e-05  2.32956136015e-05
3.26083185986  7.60860767302  1.0869439533  m  1  1  1  v  -3.95542596574e-06  4.13295679698e-05  -7.14952199395e-06
3.26083185986  7.60860767302  5.43471976641  m  1  1  1  v  1.46951061928e-05  -3.1339250761e-05  -2.41910611794e-05
7.608607673  3.26083185986  1.0869439533  m  1  1  1  v  -6.47526364639e-06  -1.96149755154e-05  -2.81589208966e-05
7.608607673  3.26083185984  5.43471976641  m  1  1  1  v  6.34691779131e-06  2.19435895493e-05  -9.08215779425e-06
7.608607673  7.608607673  1.0869439533  m  1  1  1  v  -9.59226192736e-06  -1.59733164086e-05  -4.43537373568e-05
7.608607673  7.60860767302  5.43471976641  m  1  1  1  v  -5.22182108639e-07  -1.40244338753e-05  3.22663412498e-05
1.08694395329  1.08694395329  1.0869439533  m  1  1  1  v  -3.92118564325e-06  5.45610148414e-05  -4.34923931481e-07
1.08694395329  1.08694395329  5.43471976641  m  1  1  1  v  -2.20090657927e-05  -5.3545044529e-07  1.69975370252e-05
1.08694395329  5.43471976643  1.0869439533  m  1  1  1  v  2.00978039164e-07  6.24659718675e-06  -2.38537202989e-05
1.08694395329  5.43471976643  5.43471976641  m  1  1  1  v  1.69819284491e-05  3.52999992801e-05  -3.60001398044e-05
5.43471976643  1.08694395329  1.0869439533  m  1  1  1  v  4.89594820294e-06  -2.0523317423e-05  -5.42088695133e-06
5.43471976643  1.08694395329  5.43471976641  m  1  1  1  v  1.76307795907e-05  2.66566218539e-05  -1.40513262844e-05
5.43471976643  5.43471976643  1.0869439533  m  1  1  1  v  -1.39452949617e-05  1.09830283351e-05  -2.84603737904e-05
5.43471976643  5.43471976643  5.43471976641  m  1  1  1  v  2.5907775622e-05  1.544598437e-05  1.18033720827e-06
1.08694395329  3.26083185984  3.26083185984  m  1  1  1  v  2.15920527027e-06  2.49228455946e-05  -4.20510260939e-06
1.08694395329  3.26083185984  7.60860767302  m  1  1  1  v  1.17880211309e-05  -7.82244256971e-06  2.94142589223e-05
1.08694395329  7.60860767302  3.26083185984  m  1  1  1  v  -1.17780439914e-06  1.69858240707e-05  -3.73185656953e-06
1.08694395329  7.60860767302  7.60860767302  m  1  1  1  v  -4.55736898023e-05  5.10088508439e-05  -2.49860542668e-05
5.43471976643  3.26083185984  3.26083185984  m  1  1  1  v  1.22971176603e-05  -3.47424892603e-05  2.40722837765e-05
5.43471976643  3.26083185984  7.60860767302  m  1  1  1  v  -2.49934501961e-05  -5.18425507666e-06  -3.9190123572e-05
5.43471976643  7.60860767302  3.26083185984  m  1  1  1  v  -2.88503001617e-05  -1.29233618409e-05  3.42987239032e-05
5.43471976643  7.60860767302  7.60860767302  m  1  1  1  v  -6.06606577587e-05  1.41101308693e-06  3.926419669e-05

C #label
0 #magnetism
32 #number of atoms
-1.99289883588e-27  -3.404499795e-27  1.58171162662e-11  m  1  1  1  v  5.14033805791e-05  -3.53975179349e-05  5.01615598597e-05
-5.47803860756e-16  -9.35821777838e-16  4.34777581313  m  1  1  1  v  -3.49564946104e-05  -2.72899728935e-05  -3.96639917282e-05
-3.87902749285e-15  4.34777581314  1.58161804444e-11  m  1  1  1  v  1.11855563644e-05  -5.54331374466e-05  -2.85202011965e-05
-4.42683135361e-15  4.34777581314  4.34777581313  m  1  1  1  v  1.02670149018e-05  -1.13812066724e-05  9.17421495083e-06
4.34777581314  -3.87902749286e-15  1.58165684623e-11  m  1  1  1  v  -3.4564990281e-05  2.16206945678e-05  -2.69083881351e-05
4.34777581314  -4.81484927069e-15  4.34777581311  m  1  1  1  v  -6.61145009469e-06  -2.37718539561e-05  -2.21947894974e-05
4.34777581314  4.34777581313  1.58156326406e-11  m  1  1  1  v  2.42805038455e-05  2.72167701778e-05  1.51302756405e-06
4.34777581314  4.34777581314  4.34777581311  m  1  1  1  v  8.7689095425e-07  2.86096704786e-05  4.79244357726e-05
-2.2134156768e-15  2.17388790657  2.17388790656  m  1  1  1  v  -6.32455245672e-06  -2.95111270991e-05  -7.52984863861e-06
-2.76121953755e-15  2.17388790656  6.52166371973  m  1  1  1  v  4.28953101311e-05  1.90035897295e-05  5.74391270615e-05
-6.09244316966e-15  6.52166371971  2.17388790656  m  1  1  1  v  5.99544140987e-06  -4.4977418739e-05  -4.45290602256e-05
-6.64024703043e-15  6.52166371973  6.52166371973  m  1  1  1  v  -2.17049546518e-05  -7.70098582005e-05  2.80687337577e-05
4.34777581314  2.17388790656  2.17388790656  m  1  1  1  v  7.8077306335e-05  -4.91752671965e-05  1.00554887098e-05
4.34777581314  2.17388790656  6.52166371973  m  1  1  1  v  -3.2330219295e-05  9.54760314657e-06  6.06049947329e-05
4.34777581314  6.52166371973  2.17388790656  m  1  1  1  v  1.09070153235e-08  4.06399991487e-05  5.07395758176e-05
4.34777581314  6.52166371973  6.52166371973  m  1  1  1  v  1.92861628598e-05  4.80724403036e-06  9.74149433452e-07
2.17388790657  -2.40742463534e-15  2.17388790656  m  1  1  1  v  7.28418113835e-05  7.96953246256e-07  -1.48459162896e-05
2.17388790657  -3.34324641319e-15  6.52166371973  m  1  1  1  v  5.35786845957e-06  3.08828604155e-05  -4.98106218971e-05
2.17388790657  4.34777581313  2.17388790656  m  1  1  1  v  1.5888781866e-05  -4.7517400958e-05  4.30355136038e-05
2.17388790657  4.34777581314  6.52166371973  m  1  1  1  v  -4.84089564358e-05  -2.56876038298e-05  -4.50283348848e-05
6.52166371971  -6.2864521282e-15  2.17388790656  m  1  1  1  v  -3.26623807208e-05  9.87912378403e-06  -4.73535894507e-05
6.52166371971  -7.22227390604e-15  6.52166371973  m  1  1  1  v  1.72878384077e-05  2.54460938929e-06  1.72216041491e-05
6.52166371971  4.34777581314  2.17388790656  m  1  1  1  v  -7.52639675946e-05  1.62555048001e-05  1.16192960044e-05
6.52166371971  4.34777581314  6.52166371973  m  1  1  1  v  -3.08144377278e-05  -2.69444770293e-05  9.29187560716e-05
2.17388790657  2.17388790657  1.58163744534e-11  m  1  1  1  v  1.77852848625e-05  -7.08398904615e-07  -1.82397431004e-05
2.17388790657  2.17388790656  4.34777581311  m  1  1  1  v  2.79222341792e-05  -6.29508099695e-05  3.99229741533e-05
2.17388790657  6.52166371971  1.58154386316e-11  m  1  1  1  v  1.61708984036e-05  -1.70515722088e-05  7.68769641182e-05
2.17388790657  6.52166371973  4.34777581313  m  1  1  1  v  -1.54466266158e-05  -4.75494084166e-06  -7.56634806296e-05
6.52166371971  2.17388790657  1.58158266495e-11  m  1  1  1  v  1.4387864644e-05  -3.11479706246e-05  3.06544237109e-06
6.52166371971  2.17388790656  4.34777581313  m  1  1  1  v  -2.4696192286e-05  -2.63961180814e-05  6.35710686503e-05
6.52166371971  6.52166371971  1.58148908277e-11  m  1  1  1  v  4.6622299377e-05  4.52199978439e-05  -2.14374462784e-05
6.52166371971  6.52166371973  4.34777581313  m  1  1  1  v  -4.9160368437e-05  5.45753590777e-05  5.97246082081e-05
