ATOMIC_SPECIES
Si 28.085 Si_ONCV_PBE-1.0.upf upf201
C 12.011 C_ONCV_PBE-1.0.upf upf201

NUMERICAL_ORBITAL
Si_gga_9au_100Ry_3s3p2d.orb
C_gga_9au_100Ry_3s3p2d.orb

LATTICE_CONSTANT
1.88972612546

LATTICE_VECTORS
8.92838501238 0 0 #latvec1
0.146568127906 8.82934643299 0 #latvec2
-0.225825253038 -0.150019460748 8.71251318716 #latvec3

ATOMIC_POSITIONS
Cartesian

Si #label
0 #magnetism
32 #number of atoms
3.23567805173  1.03771330844  3.33164220405  m  1  1  1  v  -0.000159522424903  -6.52151001285e-05  0.000120411785497
3.16997389149  1.0090682999  7.65109674328  m  1  1  1  v  -4.3503003507e-05  3.62838127844e-05  -0.000192433461627
3.27172328887  5.36706399343  3.35550371025  m  1  1  1  v  0.000235311740712  -2.85131442863e-05  -0.000240712304654
3.1853644603  5.34332045042  7.69773619039  m  1  1  1  v  -0.000197664084237  -6.59924756953e-05  1.78301067338e-05
7.58095605521  1.00663923047  3.36768821663  m  1  1  1  v  2.15168796774e-05  4.87167587004e-05  -5.86465777012e-05
7.51957248824  0.948760893247  7.72018234157  m  1  1  1  v  0.000158456507491  -0.000254631922762  6.59698043124e-05
7.60818957569  5.34975435527  3.40567136619  m  1  1  1  v  0.000168181511023  -0.000178203659975  -0.000174890318974
7.56930183574  5.32227563304  7.74056967956  m  1  1  1  v  0.00014874252251  0.000135652905947  -6.4691814578e-05
3.26831676335  3.23533917393  1.1618966138  m  1  1  1  v  -0.000236883402366  0.000195026065346  0.000150135605326
3.22333278027  3.19642416647  5.49744947172  m  1  1  1  v  4.59068445508e-05  -0.000162214777954  0.000170398175366
3.28660873982  7.55838145255  1.20394767897  m  1  1  1  v  0.000158105187315  3.97276320834e-05  -0.000212903097608
3.27392436942  7.54940221821  5.53853683311  m  1  1  1  v  -6.69609207422e-05  1.08170729191e-05  0.000166251967883
7.61639208189  3.17477301782  1.19462035169  m  1  1  1  v  7.81568131949e-05  -9.56734605651e-05  -0.000173676060849
7.57518290523  3.15081621664  5.55242663856  m  1  1  1  v  0.000158884572923  3.13747973073e-05  8.80215619251e-05
7.66903936746  7.52379590582  1.24546557951  m  1  1  1  v  -0.000139949221171  -0.000257430265609  0.000131467894804
7.61012723135  7.50239331807  5.6099626446  m  1  1  1  v  0.000134176046285  0.000210559974955  -0.000129090238347
1.08888090307  1.07538043288  1.10763132622  m  1  1  1  v  0.000111480640006  -7.50964831655e-06  5.54804579818e-05
1.01406707129  1.04536529289  5.47798440424  m  1  1  1  v  -6.12643856875e-05  0.00013008900058  -0.000131808357818
1.06975537102  5.4223313252  1.15480023654  m  1  1  1  v  -0.000127726685148  -9.68547589858e-05  7.93200298678e-05
1.05363797639  5.38454255659  5.5015408331  m  1  1  1  v  5.12331890037e-07  -5.38831333897e-05  -8.30872884063e-05
5.43825397174  1.02405630478  1.18128859016  m  1  1  1  v  -0.000115529273003  9.26654994603e-05  0.000247866404802
5.38711795919  0.987520212461  5.49944596697  m  1  1  1  v  1.72769691051e-05  2.78488417144e-05  -8.4793875429e-05
5.48596041936  5.36791492102  1.19681179385  m  1  1  1  v  0.000201306015929  8.92836069634e-05  -0.000193009278149
5.39963298452  5.36186992194  5.56067909531  m  1  1  1  v  2.03456365044e-05  -9.69389146277e-05  0.0001574320158
1.06232409558  3.22627536001  3.31467497588  m  1  1  1  v  -0.000267785230053  6.73216043856e-05  0.000210144088554
0.993603916494  3.2046579487  7.66013292283  m  1  1  1  v  -0.000137439830179  -0.00016086399604  7.45340628083e-05
1.10116220613  7.59492552026  3.31821582377  m  1  1  1  v  -0.000225220178747  3.35504299011e-05  7.26254210221e-05
1.05846059092  7.53455324277  7.6941865624  m  1  1  1  v  0.000133498762598  2.04240516295e-05  -0.000114947127786
5.4368703592  3.18094791151  3.34961629001  m  1  1  1  v  4.21576578537e-05  -0.000100926328281  0.000131776621851
5.35097396509  3.15673379671  7.7030650753  m  1  1  1  v  -0.000218551893329  -6.33897588211e-05  9.2430729068e-05
5.46350392963  7.53591297416  3.3720808742  m  1  1  1  v  4.0403582367e-05  0.000186558164213  0.000176445867963
5.39626558756  7.5091356824  7.7330315845  m  1  1  1  v  -4.56434468156e-05  -0.00012397951283  -0.000106958598394

C #label
0 #magnetism
32 #number of atoms
8.87816730186  8.7748327163  0.116436610207  m  1  1  1  v  -0.000144664505696  5.21074482629e-05  -3.31750876669e-05
8.82269814556  8.71750800577  4.45215685132  m  1  1  1  v  2.73699547741e-05  9.41941725364e-05  -0.000148126920541
8.74580612231  4.27527021811  0.142353816326  m  1  1  1  v  -0.000162773517597  0.000323926499407  -4.89802860128e-05
8.72342298182  4.21802617381  4.50478381778  m  1  1  1  v  9.74880451097e-05  0.000194980892824  0.000231051388735
4.47614453218  8.80801449427  0.061757541385  m  1  1  1  v  0.000155027059284  0.000312815770281  0.000295271750764
4.44206422442  8.73886292962  4.41607687422  m  1  1  1  v  0.000212083095466  8.58257689629e-05  0.000280824991484
4.36864685191  4.32270860595  0.0823701304106  m  1  1  1  v  0.000109668820949  -0.000288552853769  0.000114835816929
4.29982051885  4.27224429692  4.42430822397  m  1  1  1  v  -0.000200024534808  -0.000108179075177  3.6047065178e-05
8.67629198753  2.11116872351  2.30254967744  m  1  1  1  v  1.02027171629e-06  -7.18577033868e-05  0.000241707311963
8.62364569234  2.05101396513  6.65186832523  m  1  1  1  v  0.000271853191416  -0.000123826748652  3.42960623454e-05
8.75054984885  6.42676541902  2.32655509173  m  1  1  1  v  8.45998134063e-05  0.000174484722504  -0.000384846859426
8.71121935971  6.41055294652  6.71197039764  m  1  1  1  v  5.38458733241e-05  -0.000356124548009  0.000218078787814
4.3328202967  2.10806312716  2.27609806418  m  1  1  1  v  -0.000148101391516  -0.000110394574529  1.28623327896e-05
4.27365033448  2.0628061673  6.55439043847  m  1  1  1  v  -0.000177384408664  -5.94963384203e-05  -0.000282770321552
4.37547894268  6.43264238821  2.27219512165  m  1  1  1  v  -0.000423533523426  8.85442761811e-05  4.79311874403e-05
4.31658660848  6.43327156984  6.62072744328  m  1  1  1  v  0.000346960042256  -0.000190949129916  0.000200613441446
2.28526503114  8.76539867675  2.22036327762  m  1  1  1  v  9.53503542067e-05  0.000354255727442  0.000413387125968
2.0715164681  -0.0533644364278  6.55488914485  m  1  1  1  v  -0.000282905156563  6.76697381941e-05  -0.000199437618039
2.16533718652  4.30960998232  2.27439743826  m  1  1  1  v  -0.000252948487437  5.55176224885e-05  0.000168708036182
2.13583528191  4.28175981358  6.57162503188  m  1  1  1  v  -7.47431368607e-07  0.000217800512398  -0.000431006788023
6.6360775569  8.77307791765  2.26412107867  m  1  1  1  v  5.71493440259e-05  0.00017679665371  0.000220753021468
6.60774569741  8.69634241437  6.59594812246  m  1  1  1  v  0.000152831361635  -0.000290022900399  -0.000143942742106
6.54833364681  4.27501332276  2.31424820474  m  1  1  1  v  -5.31716005244e-05  9.26708405952e-05  0.000174181434302
6.45665968676  4.25229477214  6.6485033854  m  1  1  1  v  9.78094471228e-06  -9.89494843512e-05  9.91059711227e-05
2.20690646666  2.16042165418  0.0300192688425  m  1  1  1  v  -0.000307473160498  1.95102095746e-06  -0.000327997774254
2.14011093811  2.09799583021  4.39008857941  m  1  1  1  v  0.000212361837786  -0.000139585869105  -2.25553286949e-05
2.22584910354  6.50267131043  0.0683258771482  m  1  1  1  v  -7.47922083267e-05  -1.87013249295e-05  -0.000152560495142
2.1577681569  6.45524146254  4.41981942815  m  1  1  1  v  -0.000191864746202  0.000241488072404  -1.18361455857e-05
6.52648861836  2.11142311815  0.107290022023  m  1  1  1  v  0.000107181076532  -1.80496610692e-06  -3.55206908756e-06
6.46950817114  2.09387464986  4.43802386758  m  1  1  1  v  -0.000206868474975  -7.71318444118e-06  0.000257701731547
6.56305186575  6.46237359752  0.14592880064  m  1  1  1  v  -0.000120611014447  0.00010232778549  -3.47522912327e-05
6.53589242969  6.4179771514  4.49338856729  m  1  1  1  v  1.79580909664e-05  0.000295875485885  -0.000290160526639
