ATOMIC_SPECIES
Si 28.085 Si_ONCV_PBE-1.0.upf upf201
C 12.011 C_ONCV_PBE-1.0.upf upf201

NUMERICAL_ORBITAL
Si_gga_9au_100Ry_3s3p2d.orb
C_gga_9au_100Ry_3s3p2d.orb

LATTICE_CONSTANT
1.88972612546

LATTICE_VECTORS
8.51101414854 0 0 #latvec1
0.163028227574 8.60269074938 0 #latvec2
0.0176152845577 -0.124018601118 8.55180059084 #latvec3

ATOMIC_POSITIONS
Cartesian

Si #label
0 #magnetism
32 #number of atoms
3.27534467771  1.03425203314  3.27566193316  m  1  1  1  v  -0.000164013424414  -4.45486479029e-05  0.00012619916578
3.28019632141  1.01712945621  7.60387901754  m  1  1  1  v  -2.78967659449e-05  4.28372599864e-05  -0.000235640813332
3.32352793146  5.37023227029  3.29366055371  m  1  1  1  v  0.000234804623634  -2.78319485981e-05  -0.000232808813903
3.30125638831  5.34553786004  7.63253173355  m  1  1  1  v  -0.000183000177705  -7.5014548483e-05  -2.16491529514e-05
7.60584615221  0.997159751107  3.24938986459  m  1  1  1  v  -2.8997104179e-06  7.08940756518e-05  -5.07301019984e-05
7.62021318355  0.951773499095  7.60758527138  m  1  1  1  v  0.000149760137402  -0.000244854153393  2.72367219863e-05
7.65018240959  5.32695304169  3.29607773569  m  1  1  1  v  0.000137447391017  -0.000165296358652  -0.000173520276717
7.67878531044  5.32544812982  7.61189806652  m  1  1  1  v  0.000136581448217  0.000133659514106  -9.60911901965e-05
3.27556095886  3.22174495855  1.11977021424  m  1  1  1  v  -0.000237530446219  0.000204132729048  0.000158731765098
3.29468602013  3.19152523031  5.46177660669  m  1  1  1  v  4.8202954156e-05  -0.000154154702976  0.00016541524299
3.32326034079  7.55501119706  1.14780179251  m  1  1  1  v  0.000157388788595  -8.14484144369e-06  -0.000212766750586
3.36338376284  7.53953486412  5.48670122437  m  1  1  1  v  -6.09162553283e-05  -3.63549012748e-05  0.00015951007618
7.62972987806  3.18277856224  1.09381766085  m  1  1  1  v  4.48696541283e-05  -9.82502068202e-05  -0.00016121791344
7.64056220287  3.15305600737  5.45238733797  m  1  1  1  v  0.000133726362296  3.46320337914e-05  8.61502337981e-05
7.67574140602  7.50481023083  1.13764073275  m  1  1  1  v  -0.000153665033102  -0.000301687025921  0.0001318907181
7.6988002491  7.49897564318  5.48412447544  m  1  1  1  v  0.000114968930107  0.000163739892331  -0.000134980609396
1.12267106776  1.08785462327  1.09173285711  m  1  1  1  v  0.000194141196055  -3.25086768788e-06  5.10908097593e-05
1.09522967212  1.04443854985  5.44781169413  m  1  1  1  v  3.70738328297e-05  0.000139231201875  -0.000152293135144
1.12590277512  5.40673471127  1.13187285017  m  1  1  1  v  -4.21904523318e-05  -0.000100447777358  6.49207725158e-05
1.153197925  5.38992431128  5.46540416201  m  1  1  1  v  9.16937588162e-05  -6.3416249117e-05  -0.000104832898009
5.44963756502  1.03531264479  1.09551662963  m  1  1  1  v  -0.000120741643214  0.000105238435864  0.000264345420142
5.46227593956  0.996359740159  5.42109289385  m  1  1  1  v  1.10300474376e-05  4.33287754675e-05  -8.19392623518e-05
5.48837341807  5.37219604309  1.11835280519  m  1  1  1  v  0.000198040201945  9.00019683807e-05  -0.000182286966851
5.48991299145  5.35825748458  5.47329059515  m  1  1  1  v  1.29468322738e-05  -9.07585638112e-05  0.00016025653773
1.12258346108  3.2367634817  3.27467171451  m  1  1  1  v  -0.000173059869585  5.05832337272e-05  0.000195198583722
1.13619564804  3.18271413837  7.61834342996  m  1  1  1  v  -2.86710538089e-05  -0.000174803800282  7.45584305972e-06
1.16691449792  7.57917174469  3.28865683357  m  1  1  1  v  -0.000116940896222  -3.78088343208e-05  3.18867322241e-05
1.20913471315  7.52367476255  7.63064004812  m  1  1  1  v  0.000266004907526  -6.28853932522e-05  -0.000194566457056
5.47279029967  3.16874005231  3.284608063  m  1  1  1  v  4.12796060828e-05  -9.55864255543e-05  0.000126991701749
5.47269654842  3.15401091252  7.60410181688  m  1  1  1  v  -0.000209505145096  -6.57948311859e-05  6.0987647295e-05
5.52682339696  7.529975039  3.30381963043  m  1  1  1  v  3.97042955828e-05  0.000139329410859  0.000166287583142
5.5237459229  7.48842344438  7.63512305542  m  1  1  1  v  -2.43053038162e-05  -0.000177644967274  -0.000154848394643

C #label
0 #magnetism
32 #number of atoms
0.312521872582  8.58343620316  0.0467671351579  m  1  1  1  v  -0.000411068654519  0.000219376951541  0.000146328522479
0.337348896669  8.52702503905  4.36054700789  m  1  1  1  v  -0.000183254115123  0.000225333660435  -5.87945226653e-05
0.181341372893  4.28154264457  0.0558590999114  m  1  1  1  v  -0.00037404072845  0.000370229691231  7.42917606666e-05
0.230459856524  4.22637248846  4.38237946181  m  1  1  1  v  -6.88100307782e-05  0.000211694154  0.000291847809376
4.30382609769  0.00123475300932  0.0282628917178  m  1  1  1  v  0.000105415946241  0.000418641630751  0.000386140713602
4.34793900451  -0.0573919629147  4.3560727279  m  1  1  1  v  0.000214523129259  0.00016560414755  0.000292769895056
4.36234381101  4.31808058387  0.0292660574489  m  1  1  1  v  7.90998461799e-05  -0.000284746702548  0.000183530292294
4.38834016951  4.26825781243  4.36030225987  m  1  1  1  v  -0.000210762925629  -0.000113738611261  3.06523852737e-05
0.170591320635  2.09322036688  2.19578666172  m  1  1  1  v  -0.000167197739671  -4.11833252173e-05  0.000275726937642
0.178795658339  2.04823487065  6.5262096912  m  1  1  1  v  0.000101459455231  -9.65029744762e-05  8.59920005965e-05
0.239950845881  6.42921290981  2.21688710386  m  1  1  1  v  -8.63041917767e-05  0.000182801630577  -0.000335276866009
0.265539433396  6.40275634038  6.58219638942  m  1  1  1  v  -0.000108370715959  -0.000343025868502  0.000245783624423
4.35922426164  2.10046132683  2.20397384839  m  1  1  1  v  -0.000133648673918  -0.000115360890239  1.56949516846e-05
4.36775782438  2.06584403915  6.49056694203  m  1  1  1  v  -0.00015710939959  -6.82029075394e-05  -0.000287539085073
4.4116055866  6.43837376207  2.21030189969  m  1  1  1  v  -0.00040604036227  7.33315458817e-05  3.9721441604e-05
4.41968313164  6.42574010025  6.55583895136  m  1  1  1  v  0.000370475014378  -0.000206077413402  0.000179922378223
2.32678241919  8.56916628695  2.19109350568  m  1  1  1  v  9.70025426359e-05  0.000434747726071  0.000421676515693
2.172652579  -0.0257459860705  6.51104897532  m  1  1  1  v  -0.000283055827151  0.000148785256523  -0.000185432122275
2.20393179212  4.31115775594  2.23340971135  m  1  1  1  v  -0.000225076296541  3.93495574591e-05  0.000160462848236
2.23133046926  4.28173473667  6.51669136465  m  1  1  1  v  2.5908249651e-05  0.000208396665612  -0.000427997610606
6.69031395462  8.55507563483  2.17431572176  m  1  1  1  v  1.8755185022e-05  0.000271612077714  0.000237660554951
6.70431030155  8.49218868187  6.51381552961  m  1  1  1  v  0.000140815530545  -0.000205827239134  -0.000130032722422
6.57868013907  4.27260096109  2.21078514579  m  1  1  1  v  -5.46788932405e-05  7.63078877934e-05  0.000180991834267
6.5547221189  4.25444493738  6.55040457112  m  1  1  1  v  2.64338556365e-05  -0.000110131956337  9.07742331354e-05
2.1957257063  2.16941379117  0.0128762624324  m  1  1  1  v  -0.000327861386684  9.03444393776e-06  -0.000255364898288
2.2266911761  2.11238739227  4.36163790007  m  1  1  1  v  0.000213615824044  -0.000156654013098  -4.32821865614e-05
2.22100534086  6.50679327721  0.0350581575634  m  1  1  1  v  -8.2283716243e-05  -1.73392278246e-05  -7.44841812576e-05
2.24273536707  6.46508060492  4.37633748795  m  1  1  1  v  -0.00017375510186  0.000214179647836  -2.1228013744e-05
6.52437270227  2.10252644756  0.0244897672189  m  1  1  1  v  6.61158244793e-05  2.73164899535e-05  7.35153259793e-05
6.53783779397  2.08389043948  4.34123110386  m  1  1  1  v  -0.00020315386281  -8.98790112624e-06  0.000256679176471
6.55925990084  6.46287509856  0.0644548339903  m  1  1  1  v  -0.000150033588257  9.35379186603e-05  3.15013487464e-05
6.60340411751  6.42187320988  4.39084729938  m  1  1  1  v  3.66009155586e-05  0.00027373768778  -0.000292480877104
