ATOMIC_SPECIES
Si 28.085 Si_ONCV_PBE-1.0.upf upf201
C 12.011 C_ONCV_PBE-1.0.upf upf201

NUMERICAL_ORBITAL
Si_gga_9au_100Ry_3s3p2d.orb
C_gga_9au_100Ry_3s3p2d.orb

LATTICE_CONSTANT
1.88972612546

LATTICE_VECTORS
9.30491657978 0 0 #latvec1
-4.80819942609 8.0108800498 0 #latvec2
-0.290122035212 -0.291881730917 10.3551637987 #latvec3

ATOMIC_POSITIONS
Cartesian

Si #label
0 #magnetism
36 #number of atoms
-0.031293811469  1.78723525063  2.59172281848  m  1  1  1  v  0.000111206884455  0.00029020749992  -0.000159259981241
3.03296762453  7.20538261139  2.6959258325  m  1  1  1  v  0.00025938436273  0.000126038067826  -0.000253866596555
-3.23845718275  7.16711872358  2.61445643751  m  1  1  1  v  0.000185483406198  8.45596707088e-08  0.000143873483398
4.54042500707  6.28671105994  5.2891214744  m  1  1  1  v  -9.26768612648e-05  -7.04661703798e-06  -2.52454749848e-05
1.48453022392  0.854135530384  5.16814177432  m  1  1  1  v  -5.59452231631e-05  1.92895706497e-06  0.000107595923964
7.73924831536  0.930981528242  5.28224001282  m  1  1  1  v  -0.000119954644452  2.86492289122e-05  1.71021432141e-05
-0.135360804493  1.71655968139  7.74652701074  m  1  1  1  v  0.000288407163436  -1.88841972138e-05  9.17232337406e-05
2.93097553284  7.14075864174  7.85847330192  m  1  1  1  v  -6.30611040794e-05  -0.000301582448274  -4.57465033672e-05
-3.29448487183  7.10934808464  7.76643884912  m  1  1  1  v  -9.14535960615e-05  0.000144670427435  0.000255494915563
4.75026593166  6.51534842109  0.0927793065964  m  1  1  1  v  -0.000218260117335  -0.00017694258285  0.000106669542553
1.38989679452  0.760040517016  10.3114874389  m  1  1  1  v  -6.97028236223e-05  0.000293410708757  7.28765421475e-05
7.96548110552  1.11793671233  0.0444341379971  m  1  1  1  v  5.71339325417e-05  0.000201600664754  -0.000130920649443
-1.65101758568  4.47295133204  2.62640933633  m  1  1  1  v  0.000193008823294  4.49048560519e-05  0.000182917604584
1.50200756362  4.51348083654  2.66119645511  m  1  1  1  v  -4.13844710544e-05  -6.28019761716e-05  0.000157215599473
-0.117850593859  7.1807449187  2.64680447561  m  1  1  1  v  -5.77468850753e-05  0.000198638706495  0.000162783797111
6.14747371749  3.59995911628  5.27806591395  m  1  1  1  v  3.27865873354e-05  -0.000239856444956  -0.000136292169036
3.00274737948  3.56480132205  5.23179427471  m  1  1  1  v  -0.000230865915874  4.90934694667e-05  -0.000157227547835
4.59661294266  0.875196019272  5.22133754706  m  1  1  1  v  -0.000158216605151  -8.41340807073e-06  -0.000112152030909
-1.7208931059  4.39019820595  7.73794547509  m  1  1  1  v  -0.00016263747746  0.00021543062195  4.25351277104e-05
1.40199939062  4.43691150848  7.783573514  m  1  1  1  v  5.9566153809e-05  -2.73854910646e-05  0.000196975327368
-0.172140095502  7.14325955773  7.80773191784  m  1  1  1  v  0.000154089342066  0.000212919430769  0.000137645803012
6.3611921313  3.82861492439  0.0443473042133  m  1  1  1  v  -0.000138897505267  -3.20802303573e-05  2.62426412662e-05
3.23496923087  3.77655646506  0.0247810786653  m  1  1  1  v  5.80418041057e-05  -0.000175159053174  4.83471459802e-05
4.55217987515  0.823180348448  10.3543909222  m  1  1  1  v  -9.35567454033e-05  0.000110942813107  8.05098613996e-06
3.07091347878  1.81091692264  2.65508218357  m  1  1  1  v  0.000101520994839  -0.000270512768475  0.000194848970283
6.19455657496  1.84792256416  2.69528608089  m  1  1  1  v  0.000250504118615  0.00010020894773  -3.02338548354e-05
4.6092823363  4.54096431186  2.6993815406  m  1  1  1  v  0.000129508035579  0.00018078029383  2.10836993914e-05
1.43470427353  6.26192774637  5.24028156224  m  1  1  1  v  -3.76142255649e-05  3.06150287338e-05  -8.19879918535e-06
-1.69240133561  6.22767251035  5.21604479748  m  1  1  1  v  0.000180247933726  0.000169807098616  -0.000145558979161
-0.0992724459978  3.5458594479  5.16811008724  m  1  1  1  v  -0.000123540982632  0.000217327850874  -0.000155153893384
2.98685017424  1.73076484238  7.77743863109  m  1  1  1  v  -0.00025108016551  5.20041724806e-05  7.73164257209e-05
6.14921759197  1.77757897783  7.82166913953  m  1  1  1  v  0.000199115280489  -6.28851142752e-05  5.98179152362e-05
4.54154991418  4.4676624  7.84537762737  m  1  1  1  v  -0.000108585770973  -7.62624113954e-06  0.000213079339406
1.64448556913  6.45626949272  0.0451321605329  m  1  1  1  v  -5.18721611098e-05  -7.99873399295e-05  1.23142197601e-05
-1.78584880855  6.1619003241  10.3283182817  m  1  1  1  v  -5.27720009088e-05  -1.71518231096e-06  7.21497766331e-05
-0.19575683695  3.45477980958  10.3274118919  m  1  1  1  v  0.00014655885976  -6.4392762999e-05  -0.00015837183093

C #label
0 #magnetism
36 #number of atoms
-0.0959737466708  1.76558712357  4.52165483037  m  1  1  1  v  0.000247579025931  9.36943033541e-05  3.86994564316e-05
2.9747080977  7.1635124228  4.61169613541  m  1  1  1  v  0.000236765536166  2.69019728737e-05  -0.000419122352165
-3.27013466202  7.14175370149  4.56474110809  m  1  1  1  v  -0.000251463189549  0.000281542155923  0.000311193926773
4.54734790243  6.25058402693  7.20947067997  m  1  1  1  v  -7.9364944481e-05  -0.000413271011513  0.000128386979214
1.44537222962  0.826700299301  7.08877770159  m  1  1  1  v  -0.000229095702467  -0.000238778243557  -0.00025665371272
7.70364485349  0.870775228573  7.15481936519  m  1  1  1  v  -0.000174607232756  -0.000457028811283  0.000131421868381
-0.194572843498  1.67086372483  9.66786800888  m  1  1  1  v  5.23474881256e-05  -7.35406067327e-05  0.000153462420093
2.93611241484  7.11023162842  9.7570424331  m  1  1  1  v  -0.000212830153187  0.000285827218123  2.80068728351e-05
-3.34325049511  7.07502951016  9.71432333297  m  1  1  1  v  0.000352870065426  0.000196526653609  2.15400370289e-05
4.61583855794  6.32789914579  2.06357256965  m  1  1  1  v  -0.000163435356679  -6.47717273898e-05  0.000375131469807
1.53572607769  0.913297641853  1.97785293693  m  1  1  1  v  0.000167569715083  0.000179876285962  -2.31034933399e-05
7.77674859662  0.965642436771  2.0382921056  m  1  1  1  v  0.000144960116739  -0.000133761952717  3.49238412979e-07
-1.69264415711  4.42753187384  4.54440568451  m  1  1  1  v  -0.000206458042668  -0.000365533415008  -0.000130714205756
1.44657654678  4.47199117922  4.56208829503  m  1  1  1  v  -0.000435619863432  0.00010166505648  -1.73391093884e-05
-0.134589705124  7.1683767275  4.61971733777  m  1  1  1  v  0.000202746401613  -0.000181841349839  -0.000350779969509
6.11007480729  3.598490638  7.2037928461  m  1  1  1  v  -0.000140923499139  0.000190042215631  -0.000311529144669
2.97768069174  3.52925082189  7.150546324  m  1  1  1  v  7.57812872401e-05  -0.000249976040546  0.000142144361872
4.581787516  0.868005992725  7.13192523064  m  1  1  1  v  0.000205018032984  7.93341945673e-05  -2.49805776004e-05
-1.78247599083  4.35848462301  9.67296516691  m  1  1  1  v  -0.000227438241969  -9.455851993e-05  -0.00030765130934
1.38295389228  4.41889324398  9.70744707956  m  1  1  1  v  0.000242104760233  0.000250646011996  0.000158112052176
-0.203596907677  7.04983534314  9.7696402441  m  1  1  1  v  0.000172005802156  -6.75277985872e-05  0.000273993128052
6.19900717733  3.65605524658  2.0475964881  m  1  1  1  v  0.000126352924032  6.33115644828e-05  -0.000379275366813
3.08324059159  3.62503005919  2.00720276673  m  1  1  1  v  0.000240457595014  -0.000144930883758  -0.000235449101504
4.68250994546  0.924602994319  2.03417745327  m  1  1  1  v  6.91900663697e-05  -5.27747289739e-05  -0.000153406697484
3.0546978247  1.79335601955  4.55795627619  m  1  1  1  v  2.41342299447e-05  9.79722192778e-05  -0.000237373297624
6.1809306676  1.77748167348  4.61033546524  m  1  1  1  v  0.000200057730656  5.935701134e-05  2.3428614771e-05
4.60391621923  4.50602984156  4.62211545499  m  1  1  1  v  -7.504691488e-05  8.01425237386e-05  -0.000260313097429
1.40163371382  6.2289553174  7.18848020102  m  1  1  1  v  7.38638390327e-05  -0.000204938923604  0.000273367174667
-1.7403476003  6.22418939612  7.15093481905  m  1  1  1  v  5.69316106728e-05  -1.14983952195e-05  0.000167823398958
-0.130177614159  3.50841185037  7.12292825093  m  1  1  1  v  0.000215839761433  -0.000242988056971  -5.86661125423e-05
2.95741780731  1.70668953273  9.70673603319  m  1  1  1  v  -0.00013473247628  -9.44144753883e-05  -0.000125506683743
6.11704672893  1.70940967352  9.73506816421  m  1  1  1  v  0.000138343581978  -0.000382155872416  -1.30977869551e-05
4.50182662878  4.41993546317  9.77111819888  m  1  1  1  v  -0.000175491615394  -0.000170615040837  0.000322932917253
1.50320768035  6.30956864045  2.04277974355  m  1  1  1  v  0.000106591830684  -7.75308706143e-05  0.000182982714501
-1.65542758215  6.25238168405  2.00606949028  m  1  1  1  v  -2.2289014124e-06  -2.21632162349e-05  0.000292289400163
-0.0569392245769  3.60847159377  1.95442912295  m  1  1  1  v  -0.000240404283395  0.000173412462176  -0.000144083513051
