ATOMIC_SPECIES
Si 28.085 Si_ONCV_PBE-1.0.upf upf201
C 12.011 C_ONCV_PBE-1.0.upf upf201

NUMERICAL_ORBITAL
Si_gga_9au_100Ry_3s3p2d.orb
C_gga_9au_100Ry_3s3p2d.orb

LATTICE_CONSTANT
1.88972612546

LATTICE_VECTORS
9.30491657978 0 0 #latvec1
-4.80819942609 8.0108800498 0 #latvec2
-0.290122035212 -0.291881730917 10.3551637987 #latvec3

ATOMIC_POSITIONS
Cartesian

Si #label
0 #magnetism
36 #number of atoms
-0.0313181504496  1.76869828854  2.59049751136  m  1  1  1  v  2.4338649661e-05  1.56860916047e-07  -1.91957372205e-05
3.02067079438  7.21118966483  2.70111357324  m  1  1  1  v  3.17932676434e-05  3.71876913011e-06  -1.8472429138e-05
-3.23905043357  7.17230146323  2.61860059631  m  1  1  1  v  -3.59389878249e-05  -3.26054297669e-05  9.78243203888e-05
4.55571591702  6.29768310481  5.29042455697  m  1  1  1  v  -9.30399596886e-05  5.36164282584e-05  8.73898734036e-05
1.49541555861  0.855303714488  5.16848188533  m  1  1  1  v  -8.24074046668e-05  4.94446476906e-05  -4.61904995172e-05
7.75072055498  0.919671961341  5.27434861228  m  1  1  1  v  -0.000112393300379  0.000162929454249  -9.20342811685e-05
-0.135605727792  1.71780883951  7.74365283307  m  1  1  1  v  3.75695779733e-05  4.03501711538e-05  4.95576441862e-05
2.93636804437  7.13785600636  7.85673034761  m  1  1  1  v  -9.53602524326e-05  4.81373166671e-05  -0.000102940022898
-3.29640106176  7.10104626572  7.75450089107  m  1  1  1  v  -7.43326263728e-05  3.61629859395e-05  -2.52238996003e-05
4.76846243217  6.51872489078  0.0812099847304  m  1  1  1  v  -6.65105828319e-05  -8.08465236307e-05  -1.68907134002e-05
1.39987994596  0.754937213757  10.3126290908  m  1  1  1  v  -0.000121303136658  -1.56637486529e-05  -4.03435336624e-05
7.95855295255  1.1084868236  0.046483239458  m  1  1  1  v  5.81030472065e-05  -2.03007711977e-05  -2.82690216713e-05
-1.64269661244  4.47150339693  2.61593926521  m  1  1  1  v  -0.000137105574459  -8.34893538799e-05  0.000163213674076
1.50376837607  4.51066062332  2.65561117363  m  1  1  1  v  0.00013865845684  -0.000172225347085  -1.52711476832e-05
-0.111204242339  7.18257316154  2.66058082578  m  1  1  1  v  1.1157757423e-05  -3.12808247032e-05  -0.000206017732814
6.15177714965  3.60889512975  5.27565333786  m  1  1  1  v  -4.82594981837e-05  9.38630167847e-05  0.000182432949402
3.00366074381  3.56846046943  5.23800355158  m  1  1  1  v  0.00012821956856  -0.000109845828688  -1.57378230598e-05
4.59969073539  0.877237481962  5.21510313239  m  1  1  1  v  -6.88270039398e-05  4.22787130114e-05  4.57715975482e-05
-1.71528967371  4.38443772757  7.72486155701  m  1  1  1  v  8.82273789788e-05  -5.54436749501e-05  8.63015370276e-05
1.39394686028  4.43215308479  7.77969523365  m  1  1  1  v  9.88330992396e-06  0.000100642258602  2.11123265608e-05
-0.174257952868  7.13054709699  7.80683442967  m  1  1  1  v  -3.07004490876e-05  0.000197317077431  -3.46608797739e-05
6.3725165081  3.83786329106  0.0415134787783  m  1  1  1  v  -9.89113292324e-05  3.86772401867e-05  -3.44589115016e-05
3.229381205  3.77859326374  0.0153631169031  m  1  1  1  v  0.000109046441938  0.000123429597581  9.3217197586e-05
4.54418356827  0.819192236208  10.348743522  m  1  1  1  v  3.42474754824e-05  4.36561548644e-05  -5.66582535612e-05
3.07227617995  1.79651968898  2.64913419238  m  1  1  1  v  2.49977837644e-05  7.24408388325e-05  0.000119940399495
6.20298585436  1.84192372042  2.68878795094  m  1  1  1  v  -0.000172415021184  2.28587879608e-05  7.67185742159e-06
4.62180079091  4.52805314676  2.7059126035  m  1  1  1  v  3.36770791004e-06  -8.62080945406e-05  0.000124005295162
1.42226307524  6.2602749464  5.24123296571  m  1  1  1  v  1.02956588284e-05  7.02482143882e-05  -7.39721592316e-05
-1.69450016263  6.22606293287  5.2213253295  m  1  1  1  v  3.85420012893e-05  -8.98113857921e-05  7.25116918144e-05
-0.104839206417  3.54121065925  5.17288596247  m  1  1  1  v  0.00011372449447  -9.99778902398e-05  -4.71689861126e-05
2.99592970325  1.73218971651  7.77721784288  m  1  1  1  v  -9.95409571554e-05  -0.000112318327369  0.000172266656758
6.15347872999  1.77188226217  7.81903541544  m  1  1  1  v  8.54469525243e-05  3.65955598337e-05  7.99167095374e-06
4.53856127001  4.45886866279  7.83652263448  m  1  1  1  v  5.66588421523e-05  -7.37130724299e-05  -9.39951342029e-05
1.63935264455  6.46970656413  0.0497380838422  m  1  1  1  v  -8.51650425638e-05  -5.08739951904e-05  -5.65559633953e-05
-1.77705347506  6.15927136166  10.3349071071  m  1  1  1  v  -0.000175408840511  -2.02370984709e-05  1.46996634586e-06
-0.201450434997  3.4562485683  10.3353904712  m  1  1  1  v  -5.03631414606e-05  4.63019041405e-05  3.28891266299e-05

C #label
0 #magnetism
36 #number of atoms
-0.0892262084705  1.75598304704  4.50461776827  m  1  1  1  v  1.5948469091e-06  0.000115643841691  -4.74179632455e-05
2.98100514546  7.1858433708  4.6417734418  m  1  1  1  v  -0.000193535330307  5.66814090999e-05  6.49663375484e-06
-3.27106590161  7.12891247355  4.56428772669  m  1  1  1  v  9.05395436346e-05  -0.000210597546988  0.000209869825636
4.53439048217  6.27971949635  7.21812164143  m  1  1  1  v  -0.00025713352496  -0.000102472531219  4.93149417197e-05
1.44493272466  0.81314994044  7.10363777747  m  1  1  1  v  0.000106742884725  0.000208465044119  -0.000106815082631
7.71672290221  0.878824340422  7.17281702303  m  1  1  1  v  -5.69316701289e-05  0.000306045993231  -5.44757321154e-05
-0.19153814657  1.67725623459  9.65866002041  m  1  1  1  v  -0.000270692639137  8.51669338974e-05  -0.000139184874524
2.93047736129  7.10110681571  9.76039756337  m  1  1  1  v  -0.000154022433179  -0.000116968248529  -0.000203349295123
-3.35914521293  7.07085510494  9.70755664177  m  1  1  1  v  0.000175474314872  -2.56252844859e-05  9.99090827516e-05
4.61891356898  6.34663555568  2.06860750812  m  1  1  1  v  4.64999457032e-05  -9.79308005627e-05  -0.000223573055536
1.53107221277  0.904556029427  1.96578979234  m  1  1  1  v  -0.000169395222641  -7.72413158297e-05  -8.23137404883e-05
7.79708394982  0.960549884854  2.03962650279  m  1  1  1  v  2.3256679624e-05  3.30960563778e-05  -3.8926425643e-05
-1.68291698057  4.44836399972  4.5557937315  m  1  1  1  v  0.000160493765783  9.75147513053e-05  -0.000164380808999
1.45017410805  4.44649807986  4.58769263053  m  1  1  1  v  -1.85136359029e-05  -7.02786950951e-05  -0.000203273789731
-0.134933387405  7.16313844075  4.6142773616  m  1  1  1  v  3.8493338908e-05  -3.03802743682e-05  -5.79865819598e-05
6.10516815607  3.58611264057  7.21510713376  m  1  1  1  v  -0.000109968286749  -4.3471224024e-05  0.000222634074162
2.98995803324  3.55172296941  7.150035059  m  1  1  1  v  -0.000102371612472  2.6165992025e-05  1.0013795895e-06
4.57865252179  0.868602745058  7.14793352878  m  1  1  1  v  9.82448721816e-05  0.000272899741824  -0.000102349747339
-1.75931618031  4.35774000165  9.67773659084  m  1  1  1  v  -9.46133450189e-05  6.04671582472e-05  0.000249796364667
1.37595392568  4.40688405822  9.71363149916  m  1  1  1  v  -1.62189253568e-05  -0.000222914647782  -0.000147697099732
-0.198569463391  7.06530798872  9.76743124112  m  1  1  1  v  0.000162547988632  -6.02813657551e-05  4.89398328224e-05
6.20690280143  3.65909950408  2.05637154385  m  1  1  1  v  3.01706434314e-05  -2.34269083273e-05  8.05638663622e-05
3.06626432945  3.62868572114  2.0242513661  m  1  1  1  v  0.000150108223776  -0.000219365220757  -0.000159040794263
4.67239410098  0.919053471006  2.02111440937  m  1  1  1  v  0.000316227232242  0.000157090460359  9.35832780553e-05
3.03944509711  1.77911504007  4.55371202379  m  1  1  1  v  -0.000238332065401  0.000142487561745  0.000143371627863
6.16205194608  1.77711734057  4.61470624428  m  1  1  1  v  -0.000285137080934  -0.000239699480113  -0.00020764146587
4.58524260674  4.49348114101  4.6231782705  m  1  1  1  v  -1.6933770983e-05  -1.3938921022e-05  -0.000164486794048
1.38940425154  6.24022144204  7.16289313346  m  1  1  1  v  -2.74538072973e-05  5.34767601704e-05  7.04132452083e-05
-1.74129112841  6.21894338531  7.13899689175  m  1  1  1  v  0.000229502310905  -8.15077118467e-05  0.000105800167092
-0.137984785663  3.50605869803  7.12817262604  m  1  1  1  v  0.00010818942477  0.00027871695683  -0.000138803953914
2.96470734099  1.69722902856  9.71597898468  m  1  1  1  v  -6.97752969764e-05  8.9192998586e-05  0.000177339628644
6.11303600619  1.7254096508  9.75011065011  m  1  1  1  v  1.09160685884e-05  -0.000161491410487  -0.00015003032737
4.50814110464  4.41370119401  9.78260204499  m  1  1  1  v  0.000133438077086  -1.54070037385e-05  -3.42567664283e-05
1.49402903851  6.31944074064  2.04386221344  m  1  1  1  v  2.2068835734e-05  -5.80294334424e-05  -0.00029722761539
-1.65793067467  6.26900066195  1.9879342574  m  1  1  1  v  0.000147674485436  -0.000295504291853  0.000198404605554
-0.0724385705908  3.60001527414  1.9681815525  m  1  1  1  v  -6.68814207643e-05  -0.000247588374308  -4.18428353931e-05
