ATOMIC_SPECIES
Si 28.085 Si_ONCV_PBE-1.0.upf upf201
C 12.011 C_ONCV_PBE-1.0.upf upf201

NUMERICAL_ORBITAL
Si_gga_9au_100Ry_3s3p2d.orb
C_gga_9au_100Ry_3s3p2d.orb

LATTICE_CONSTANT
1.88972612546

LATTICE_VECTORS
8.88988465469 0 0 #latvec1
0.245497390325 8.73655705493 0 #latvec2
0.103292572178 -0.0978593063722 8.89103117347 #latvec3

ATOMIC_POSITIONS
Cartesian

Si #label
0 #magnetism
32 #number of atoms
3.36446576004  1.05431858299  3.3329341494  m  1  1  1  v  -0.000161553411329  -4.36641143035e-05  0.000119924890615
3.3773160939  1.03273494817  7.75356490975  m  1  1  1  v  -2.42556348756e-05  5.15229425035e-05  -0.000198573789282
3.42943330363  5.46872563925  3.33880196328  m  1  1  1  v  0.000237197378849  -2.58696465674e-05  -0.000234149752539
3.41936870173  5.45762935501  7.76408332925  m  1  1  1  v  -0.000177742047655  -7.13925313921e-05  1.80619364644e-05
7.78972905664  0.999926641801  3.27644302639  m  1  1  1  v  7.48207630621e-06  7.04237832816e-05  -5.37227270568e-05
7.82134626961  0.94498202944  7.71849125542  m  1  1  1  v  0.000161016627026  -0.000237356116123  7.13757431721e-05
7.8480801941  5.40483750376  3.31407903229  m  1  1  1  v  0.000150617095977  -0.000165082317299  -0.000173193063668
7.88810645707  5.40696243473  7.72523523423  m  1  1  1  v  0.000155140762159  0.000141652082355  -6.0944107064e-05
3.37055264468  3.27440149375  1.11819293734  m  1  1  1  v  -0.000239588560541  0.000203932560879  0.000145882382117
3.39862861216  3.26509240105  5.54258988152  m  1  1  1  v  5.13579624373e-05  -0.00015688465096  0.000168922628671
3.42579677442  7.6940809563  1.12849996005  m  1  1  1  v  0.000162695218064  -1.58742827218e-05  -0.000220254912997
3.49000285896  7.67699411862  5.5808550538  m  1  1  1  v  -5.62452370554e-05  -4.07108746736e-05  0.00015487899085
7.80649056795  3.22777331519  1.06388627466  m  1  1  1  v  6.24023727249e-05  -0.000100523243203  -0.000173306409496
7.84157701239  3.18458725509  5.52030481727  m  1  1  1  v  0.000146951949566  3.84960925522e-05  8.53885076914e-05
7.87078369262  7.62143664468  1.11223248098  m  1  1  1  v  -0.000134650325655  -0.000312127609156  0.000120466502949
7.91856166391  7.62113283994  5.54290057493  m  1  1  1  v  0.000131351702083  0.000159401308923  -0.000136118301467
1.14257682976  1.10447601615  1.11052791837  m  1  1  1  v  0.00014885381947  -4.6889083424e-06  3.4387951223e-05
1.13616840478  1.08212155182  5.54261310631  m  1  1  1  v  -9.58384132183e-06  0.000137357005642  -0.000151627225698
1.17391205652  5.5095813241  1.1371643394  m  1  1  1  v  -8.82539267839e-05  -0.000100158688672  5.4867606317e-05
1.21848188554  5.48954620467  5.55370203769  m  1  1  1  v  4.55765647537e-05  -5.72650251941e-05  -0.000100600274737
5.58062925644  1.0230151456  1.08771160527  m  1  1  1  v  -0.000120156224092  0.000110781402579  0.000251892783131
5.59400684061  1.00328269413  5.49832492743  m  1  1  1  v  1.38228421944e-05  4.72430466276e-05  -8.33244691668e-05
5.62731537686  5.44680663292  1.10232050235  m  1  1  1  v  0.000200826738888  9.55080008866e-05  -0.000192705825013
5.66178222233  5.44830052368  5.55480824635  m  1  1  1  v  1.24741724158e-05  -8.80481257162e-05  0.000157741911181
1.16926413927  3.29580783533  3.33145274173  m  1  1  1  v  -0.000217777960249  5.7008450213e-05  0.00019209078436
1.19555893327  3.24872327022  7.7818178546  m  1  1  1  v  -7.85509929256e-05  -0.000161554059412  5.08198452287e-05
1.2300714985  7.7288862485  3.33239151395  m  1  1  1  v  -0.000157188561937  -4.0713679591e-05  3.72471945106e-05
1.28691109001  7.69390851351  7.78317832099  m  1  1  1  v  0.000218854040094  -6.33844441352e-05  -0.000155656763549
5.60904301958  3.21764443838  3.30817741659  m  1  1  1  v  4.7336348172e-05  -9.86044312329e-05  0.00012905310928
5.63677733767  3.19965209797  7.7282505132  m  1  1  1  v  -0.000208018825985  -5.95859679895e-05  9.91186014737e-05
5.67095524431  7.65371772731  3.32711787199  m  1  1  1  v  5.02392231444e-05  0.000133653706526  0.000166296989813
5.7035062983  7.63433130958  7.76167651022  m  1  1  1  v  -1.91927708511e-05  -0.000180444322894  -0.000120201123073

C #label
0 #magnetism
32 #number of atoms
9.20918387972  8.55992218522  8.865599987  m  1  1  1  v  -0.000327710169979  0.000212475845168  6.99515447823e-05
9.14387958413  8.63525550754  4.40381829614  m  1  1  1  v  -0.000102989342582  0.000231573996123  -6.44256635758e-05
9.01315598741  4.23500231755  8.87359546416  m  1  1  1  v  -0.000274332635606  0.000338426594495  -4.830262604e-06
8.98460517498  4.28417798155  4.42178221562  m  1  1  1  v  1.01391166748e-05  0.000199044597057  0.000291540400688
4.74183172355  8.6196500094  8.88615482818  m  1  1  1  v  8.92918740032e-05  0.000423397284396  0.000311763977202
4.6923575074  8.6687132296  4.42475760177  m  1  1  1  v  0.00019626827086  0.000180965061731  0.000301662629016
4.57104315474  4.29146900827  8.87917593157  m  1  1  1  v  6.87175917592e-05  -0.000294444955189  0.000109112719332
4.51543292479  4.34321059634  4.42063313467  m  1  1  1  v  -0.00021432375421  -0.000113239028582  3.19894813433e-05
8.90052307178  2.10897424435  2.17994671208  m  1  1  1  v  -9.58658362019e-05  -4.32328480024e-05  0.000286047058921
8.91753742101  2.06139365458  6.61825381336  m  1  1  1  v  0.000193217844847  -9.89643215904e-05  8.62377358524e-05
8.9950071146  6.51295932821  2.21659440824  m  1  1  1  v  -6.50564633423e-06  0.000188571879031  -0.000343214086236
9.0294022454  6.51531004366  6.65528995882  m  1  1  1  v  -1.35713141862e-05  -0.000347455284839  0.000267280055314
4.46813629492  2.12824660357  2.2122442132  m  1  1  1  v  -0.000141397334236  -0.000123379412696  2.72911058172e-05
4.49410157088  2.10093121691  6.60225997115  m  1  1  1  v  -0.000171833748764  -6.92640336008e-05  -0.000285272032121
4.53469689376  6.55306352383  2.22957468448  m  1  1  1  v  -0.000412307130498  6.32224531868e-05  3.24608243705e-05
4.56226771214  6.54710197949  6.65550444852  m  1  1  1  v  0.000374257746763  -0.000206577748311  0.000194130685418
2.45696172169  8.69841053813  2.23225456715  m  1  1  1  v  7.66402235709e-05  0.000444574109776  0.000419608088914
2.23746725059  -0.00908139809293  6.63285355262  m  1  1  1  v  -0.000304933842938  0.000160810972762  -0.000174980420187
2.28303253359  4.39160906101  2.26965753745  m  1  1  1  v  -0.000242760479815  3.36956153238e-05  0.000159435500654
2.32779565725  4.38062936994  6.63690707024  m  1  1  1  v  1.03908970709e-05  0.000196515536061  -0.0004248062008
6.90743700098  8.66350277791  2.19547038546  m  1  1  1  v  1.33365998422e-05  0.00028647003118  0.000240445026422
6.94576037969  8.62997004974  6.60074615683  m  1  1  1  v  0.000129380229787  -0.000205734766395  -0.000112155298046
6.75300877908  4.32289433682  2.21178107457  m  1  1  1  v  -6.46959220523e-05  8.49341771123e-05  0.000188547453795
6.73107360639  4.32060926718  6.64594227529  m  1  1  1  v  2.82531917468e-05  -0.000113548390217  0.000100678392838
2.34301515186  2.09704829216  8.87437092284  m  1  1  1  v  -0.000335119318249  -1.63834057143e-07  -0.000324156873107
2.29882879744  2.1563130335  4.42574083796  m  1  1  1  v  0.0002035232511  -0.000155590156011  -3.05978379535e-05
2.3981273473  6.52510420018  8.88144523344  m  1  1  1  v  -0.000100779400985  -1.82140785184e-05  -0.000148662949384
2.33275122172  6.58438230735  4.45320324412  m  1  1  1  v  -0.00018253879374  0.000216384869041  -2.34769587797e-05
6.77226022778  2.0257527159  8.87399891058  m  1  1  1  v  6.99838285211e-05  -2.80665435255e-07  -4.23395086268e-06
6.69897595686  2.10220549696  4.40363295276  m  1  1  1  v  -0.000211591160786  -4.01376456358e-06  0.000246999556193
6.7179767112  6.56653545374  0.00798411943241  m  1  1  1  v  -0.000156903890185  8.21376096035e-05  -3.30037046152e-05
6.78018480821  6.53026366362  4.43963139633  m  1  1  1  v  3.75041996363e-05  0.000267702234133  -0.000291849410808
