ATOMIC_SPECIES
Si 28.085 Si_ONCV_PBE-1.0.upf upf201
C 12.011 C_ONCV_PBE-1.0.upf upf201

NUMERICAL_ORBITAL
Si_gga_9au_100Ry_3s3p2d.orb
C_gga_9au_100Ry_3s3p2d.orb

LATTICE_CONSTANT
1.88972612546

LATTICE_VECTORS
8.88988465469 0 0 #latvec1
0.245497390325 8.73655705493 0 #latvec2
0.103292572178 -0.0978593063722 8.89103117347 #latvec3

ATOMIC_POSITIONS
Cartesian

Si #label
0 #magnetism
32 #number of atoms
3.36030965007  1.04991928085  3.32288349012  m  1  1  1  v  3.85552254321e-05  -6.65421150796e-05  1.76843964378e-06
3.38420861521  1.02807250083  7.75688482586  m  1  1  1  v  -2.25920708522e-05  0.00010799106283  6.71898844855e-05
3.41369594937  5.47597211793  3.34360786833  m  1  1  1  v  8.00135602046e-05  -9.25041047087e-05  5.15517020357e-05
3.42703108274  5.45688383332  7.77088416997  m  1  1  1  v  -0.000154936344504  6.38591523722e-05  4.16323807143e-05
7.80089467303  0.99855652945  3.27543531827  m  1  1  1  v  -6.58252285339e-05  -2.96810106186e-05  8.74127067322e-06
7.82719486321  0.947909300568  7.70922757605  m  1  1  1  v  6.20451791049e-05  -2.97799243918e-05  5.99867227474e-05
7.85240649277  5.41532163068  3.3157795867  m  1  1  1  v  -9.49102038097e-05  -6.90566458258e-05  0.000119217452828
7.88314928098  5.40061387122  7.74136196969  m  1  1  1  v  0.000212544237891  0.000109565506439  -0.000133353651348
3.3762050294  3.26558273536  1.11413872276  m  1  1  1  v  -0.000163851834625  -0.000165677189986  -2.82235117183e-05
3.3992586428  3.26839974896  5.52836371415  m  1  1  1  v  -2.05575011354e-06  -4.79389624461e-05  1.37642260513e-05
3.43433170405  7.70068859914  1.12168157603  m  1  1  1  v  -0.000110692620625  -5.15140912011e-05  0.00014652642802
3.47287649811  7.67465995895  5.57284906451  m  1  1  1  v  0.000116697524675  -7.10034536735e-05  2.47398304659e-05
7.81078927342  3.22399546802  1.08027124917  m  1  1  1  v  -6.41769329008e-05  2.63361073905e-05  -6.18705585393e-05
7.84334342215  3.18254528427  5.51569533925  m  1  1  1  v  -2.68658151234e-05  8.83651374176e-05  2.27658483965e-05
7.88493559156  7.64099748528  1.10410816442  m  1  1  1  v  4.49373119637e-05  -2.17065482131e-05  -2.21448408453e-05
7.91178202372  7.61680563972  5.54254997699  m  1  1  1  v  4.07994274701e-05  4.67860194378e-05  -7.7369226903e-05
1.12605121324  1.09786642393  1.11379961403  m  1  1  1  v  7.07364562604e-05  0.000196731878792  9.10104446445e-05
1.15171747549  1.07543945615  5.54427653003  m  1  1  1  v  -3.69501567531e-05  0.000174599998734  -2.33456045505e-05
1.19761583431  5.51524488203  1.13872912781  m  1  1  1  v  -0.000187893294283  -6.35671426597e-06  3.31143973315e-05
1.21888613201  5.49097619287  5.56309801072  m  1  1  1  v  -0.000202867646628  -1.37481648879e-06  -2.09220193082e-05
5.57672601635  1.01641833475  1.0803469117  m  1  1  1  v  3.1988922724e-05  -9.86161007861e-05  -1.44539569609e-05
5.58375036522  1.01259549797  5.51586191889  m  1  1  1  v  -2.51962509837e-05  -2.14861647606e-05  -6.56740555597e-05
5.62582050318  5.44170595232  1.10929380922  m  1  1  1  v  9.43482103405e-06  -7.70449159383e-05  -5.33940694846e-05
5.65760799247  5.43998404034  5.54237456074  m  1  1  1  v  -4.19892001757e-05  0.000122850108662  3.8756744053e-05
1.17960720163  3.28774702875  3.3408024811  m  1  1  1  v  -3.24899023523e-05  0.000141373108504  2.48019471592e-05
1.19885764384  3.25636778269  7.79004159982  m  1  1  1  v  -3.38151774509e-05  -8.21145203242e-05  -0.000127179502759
1.23459176176  7.72935337701  3.35132946936  m  1  1  1  v  -4.8594944059e-05  -6.08758095251e-05  -0.000168982504913
1.27208265545  7.69122525194  7.79134017108  m  1  1  1  v  5.74181465399e-05  -9.52815616629e-05  1.52396272296e-05
5.60844920113  3.22595399706  3.30800176157  m  1  1  1  v  9.13133263074e-06  2.18199599264e-05  -0.000153283095931
5.64506342938  3.20511093156  7.7341581268  m  1  1  1  v  6.92687273638e-05  4.22291091802e-05  -0.000119016651339
5.66563785941  7.66179539921  3.32559281748  m  1  1  1  v  9.30555761864e-05  3.64375099529e-05  -3.06212126885e-05
5.69707833101  7.63890545847  7.77591374704  m  1  1  1  v  7.9053540889e-05  -0.000231019638081  -8.09669942231e-05

C #label
0 #magnetism
32 #number of atoms
9.1980702624  8.53140371336  8.85663300235  m  1  1  1  v  -0.000150601461774  0.000250053835554  0.000265122101892
9.12923273654  8.61694230388  4.39319636645  m  1  1  1  v  0.00016069491976  0.00016587765185  7.87370481806e-05
9.01812341361  4.22814270232  8.86648061787  m  1  1  1  v  -6.26134031651e-05  4.14890073591e-05  -0.000108610349853
8.95440584263  4.29792659576  4.41292667369  m  1  1  1  v  3.37335654959e-05  -4.6615291319e-05  0.000154315893504
4.77586788883  8.59469471745  8.87543198438  m  1  1  1  v  -0.000251804085708  0.000243070517403  0.000205519165922
4.69977833702  8.66062787587  4.42434289702  m  1  1  1  v  -6.53624711215e-05  -0.000130622459458  0.000139081268311
4.58631059853  4.28056491849  8.88837135603  m  1  1  1  v  -0.000267735618425  -0.000160776569923  -0.00024072026933
4.52194852144  4.35609669499  4.42683430499  m  1  1  1  v  -0.000131370526371  0.000276122144126  0.00019247863386
8.91083023203  2.10038794662  2.17777218141  m  1  1  1  v  1.60005423994e-05  7.22367738847e-05  -1.84155919638e-05
8.92952717307  2.06072504474  6.63013145031  m  1  1  1  v  -1.13975584524e-05  0.000152351062924  4.54369452666e-05
8.98007430966  6.51352421607  2.20848500278  m  1  1  1  v  -8.18716251325e-05  0.000107428696993  0.000152611498389
9.00745339987  6.50272925388  6.63100868885  m  1  1  1  v  4.99676004137e-05  -1.23796580683e-05  0.000186064352007
4.47682941327  2.14724376856  2.2014030229  m  1  1  1  v  3.92383958414e-05  -0.00011140329482  0.000150555911218
4.50490667016  2.13501323213  6.63572457717  m  1  1  1  v  -0.000119769802534  -9.61717464683e-05  -0.000277864123736
4.53295643686  6.56550474218  2.22157617782  m  1  1  1  v  3.18489703961e-05  -0.000223910382201  0.0002175802896
4.56028403805  6.55388605646  6.65209025398  m  1  1  1  v  -0.000168547400493  -0.00021741470288  -0.00032177734953
2.46006275269  8.70298096145  2.20692978863  m  1  1  1  v  -0.000126877614955  -4.25846212929e-05  -9.78103886036e-05
2.24025879263  -0.0405859367871  6.6477215414  m  1  1  1  v  -5.1105414227e-07  0.000156885756295  -0.000172475051661
2.29170347733  4.38340357168  2.240631962  m  1  1  1  v  -0.000109488517589  -0.000235192815553  0.000157370613095
2.3298995083  4.37601774086  6.65507642655  m  1  1  1  v  -0.00018829547628  8.26544633639e-05  -6.68700594883e-05
6.89816732642  8.6457895281  2.20336335308  m  1  1  1  v  -0.000182130629079  6.78203928669e-05  1.3791624272e-05
6.9412282402  8.62042532387  6.60551613156  m  1  1  1  v  -9.48195522008e-05  0.000136675440094  2.03331789429e-05
6.75241755189  4.31477798334  2.19444543948  m  1  1  1  v  0.000129588451463  9.85124514373e-05  -0.000118269999496
6.74310360196  4.31733708572  6.63691968673  m  1  1  1  v  -3.73034735396e-05  0.000314490640493  0.000138160558303
2.34726771031  2.07796680147  8.88764833192  m  1  1  1  v  -1.94870857204e-07  2.63438762821e-05  -6.68274697694e-05
2.28103197687  2.16588288641  4.4182967409  m  1  1  1  v  -0.000116978159888  -0.000201886809134  8.85877921324e-05
2.30611738468  6.62086899725  0.0225302112833  m  1  1  1  v  -0.000103755675042  9.19414332999e-05  -5.99992448606e-05
2.3332663854  6.58549665289  4.47021740603  m  1  1  1  v  0.000125555654433  0.000116106718572  6.03284249906e-05
6.78246646782  2.04530407808  8.87510036124  m  1  1  1  v  -0.000130027861275  -4.52568430394e-06  0.000178921534467
6.70728639995  2.09466167629  4.40636237588  m  1  1  1  v  6.98028903889e-05  -0.000159804843351  -4.69669456729e-05
6.73351860132  6.57550328425  0.00849337126832  m  1  1  1  v  -2.53870753099e-05  5.75808949212e-05  -7.24063937875e-05
6.78054053176  6.53712921012  4.42477367514  m  1  1  1  v  -2.22384459928e-05  4.39462458857e-05  2.92864025277e-05
