INPUT_PARAMETERS
#Parameters (1.General)
suffix                  example
calculation             scf
ntype                   1
nbands                  20
symmetry                1
pseudo_dir              ../../../PP_ORB

#Parameters (2.Iteration)
ecutwfc                 60
scf_nmax                100
relax_nmax              100

#Parameters (3.Basis)
basis_type              pw

#Parameters (4.Smearing)
smearing_method         gauss
smearing_sigma          0.0001

#Parameters (5.Mixing)
mixing_type             broyden
mixing_beta             0.7