ATOMIC_SPECIES
Si 28.085 Si_ONCV_PBE-1.0.upf upf201
C 12.011 C_ONCV_PBE-1.0.upf upf201

NUMERICAL_ORBITAL
Si_gga_9au_100Ry_3s3p2d.orb
C_gga_9au_100Ry_3s3p2d.orb

LATTICE_CONSTANT
1.88972612546

LATTICE_VECTORS
9.34115481863 0 0 #latvec1
-4.52144683955 8.20069342149 0 #latvec2
0.21625038806 -0.1185008918 10.1640456407 #latvec3

ATOMIC_POSITIONS
Cartesian

Si #label
0 #magnetism
36 #number of atoms
0.0408817155031  1.80565392707  2.57416487081  m  1  1  1  v  9.34673588517e-05  0.000263998468153  -0.00016849280682
3.23163787875  7.1844359878  2.57479595389  m  1  1  1  v  0.000265576802736  0.000137165563044  -0.000253931993564
-3.04498213072  7.23624994954  2.63523605522  m  1  1  1  v  0.000161785871374  -3.44422938669e-06  0.000123677450745
4.79606831525  6.24621837194  5.1191374528  m  1  1  1  v  -8.29173773523e-05  1.09669443653e-05  -8.9606581125e-06
1.61354589415  0.864778859418  5.12323206957  m  1  1  1  v  -6.06137924947e-05  -1.89426062851e-05  0.000111533335301
7.88093694658  0.826399437857  5.06789169981  m  1  1  1  v  -0.000113704453034  2.85864327579e-05  4.54004504173e-05
0.0916607091861  1.76157503005  7.72446696015  m  1  1  1  v  0.000266156907556  -3.51913310045e-05  6.93333862556e-05
3.26968300038  7.1629752797  7.70814992848  m  1  1  1  v  -5.33159035434e-05  -0.000285696822916  -4.69471186864e-05
-2.98232191056  7.22260147057  7.78649322985  m  1  1  1  v  -0.000103041694281  0.000143558548474  0.000224737169319
4.6340216284  6.34842031297  0.106822690529  m  1  1  1  v  -0.000202610082779  -0.000155262281881  8.63454686037e-05
1.44816564948  0.941763650846  0.0947311298586  m  1  1  1  v  -6.81421922622e-05  0.000266728670784  3.91580791863e-05
7.73722999073  0.894472545461  0.0222380342628  m  1  1  1  v  7.19702443426e-05  0.000198281588161  -0.00014467490039
-1.51021964962  4.51602672772  2.6196117015  m  1  1  1  v  0.000165956164908  2.27366245358e-05  0.000171749422004
1.64298334959  4.50279858604  2.58587188305  m  1  1  1  v  -4.28537365388e-05  -6.29574722097e-05  0.000168716502347
0.0823016090555  7.2131617822  2.58314595835  m  1  1  1  v  -5.36334272808e-05  0.000212600634532  0.000170975346951
6.34617532988  3.52213022765  5.09382309529  m  1  1  1  v  4.33776515663e-05  -0.000222103984458  -0.000119733721608
3.21227902022  3.55033806689  5.1199943384  m  1  1  1  v  -0.000238006053837  5.18965652959e-05  -0.000151945885423
4.7503484543  0.833829650317  5.10033465161  m  1  1  1  v  -0.000165726902313  -3.05754676281e-05  -0.000112181106077
-1.45728830772  4.49146835734  7.7506825727  m  1  1  1  v  -0.000185681443613  0.000188511474285  1.55303364911e-05
1.69349230223  4.47357611452  7.71372725791  m  1  1  1  v  5.91048161386e-05  -2.8465793722e-05  0.000195111328927
0.150280904095  7.20669768057  7.74703633578  m  1  1  1  v  0.00016425019003  0.000228600128422  0.000129596608957
6.18105347162  3.6064320775  0.0601019123476  m  1  1  1  v  -0.000115995751499  -8.956516934e-06  2.54505293945e-06
3.07044003357  3.64038622459  0.10794386991  m  1  1  1  v  6.37013203048e-05  -0.000172619182487  7.15341405528e-06
4.60462757272  0.927598322728  0.056621442592  m  1  1  1  v  -8.99574861623e-05  0.000105299952466  -1.90821714332e-05
3.16942362292  1.77547684285  2.55659831613  m  1  1  1  v  9.57923560109e-05  -0.000279508581381  0.000208801320029
6.29578567205  1.74300937313  2.52140523271  m  1  1  1  v  0.0002493818315  0.000101593406119  -2.12943308902e-05
4.75573030899  4.46761884031  2.54201430677  m  1  1  1  v  0.00013190439439  0.000185076855808  3.24564418885e-05
1.69224855448  6.28554620022  5.14858185726  m  1  1  1  v  -4.08178542227e-05  3.55327020307e-05  -2.80204393962e-06
-1.45358390094  6.30705323032  5.19474672152  m  1  1  1  v  0.000178397438071  0.00016800665993  -0.000143095239332
0.0950478439475  3.58897000561  5.14992087398  m  1  1  1  v  -0.000128914862254  0.000216822586772  -0.000155271051276
3.2175397027  1.72477550365  7.68374502972  m  1  1  1  v  -0.000249626316921  4.98055617431e-05  7.65399573414e-05
6.35886359701  1.72028617149  7.64753573656  m  1  1  1  v  0.000210267886362  -6.45795114247e-05  5.88202062309e-05
4.82044070699  4.43415536712  7.68158257353  m  1  1  1  v  -0.000102489272953  -1.63105466479e-06  0.000214745520936
1.5233490282  6.35932753869  0.119374073491  m  1  1  1  v  -4.6312819889e-05  -7.4268069452e-05  -1.80202061318e-05
-1.61912764554  6.40137416692  0.152280166228  m  1  1  1  v  -4.69813943375e-05  2.08181524178e-06  3.86978045503e-05
-0.0677295726825  3.66950450339  0.114677685674  m  1  1  1  v  0.000147453841716  -6.98061604115e-05  -0.000192023676554

C #label
0 #magnetism
36 #number of atoms
0.0480971772878  1.79286948833  4.51012780151  m  1  1  1  v  0.00021973417725  7.06787832135e-05  -2.56399844934e-06
3.23411780856  7.15714047176  4.47539331813  m  1  1  1  v  0.000249645561097  6.05417936579e-05  -0.000424185873134
-3.01993195642  7.24830858206  4.56699237203  m  1  1  1  v  -0.000270516083628  0.000292727785857  0.000289885316705
4.85863528316  6.22782125144  7.03668115425  m  1  1  1  v  -2.66560215433e-05  -0.000365591008539  0.000176580771514
1.64946392874  0.857279452864  7.04659965984  m  1  1  1  v  -0.000251242709917  -0.00029144428853  -0.000253573941512
7.91959510247  0.784999208471  6.97314696979  m  1  1  1  v  -0.000143867035634  -0.000445318501726  0.00017755807368
0.0937537931029  1.73531045988  9.64673043075  m  1  1  1  v  1.57577752079e-05  -9.37040796737e-05  0.000110260490164
3.30093298876  7.14723142238  9.62213571178  m  1  1  1  v  -0.000174723679632  0.000330691409779  6.18829138027e-06
-2.95765604194  7.21225758643  9.70753136145  m  1  1  1  v  0.000332641090511  0.000226677951004  1.24614942887e-06
4.78883689173  6.25816199788  1.93032123766  m  1  1  1  v  -0.000113596493714  -1.83809797268e-05  0.000487618140332
1.58834367145  0.885551849748  1.94037871027  m  1  1  1  v  0.000139439129071  0.000135474194759  5.69222376526e-05
7.84859037649  0.837010843727  1.87904300555  m  1  1  1  v  0.000165622834231  -0.000135147220852  0.000110626102493
-1.50223700828  4.49070090446  4.52439107199  m  1  1  1  v  -0.000230639264  -0.000392047428888  -0.000151515030741
1.63664706241  4.50593922744  4.47877275258  m  1  1  1  v  -0.00042697989047  7.90145087748e-05  -1.70804833516e-05
0.113994299502  7.20733120759  4.55234248719  m  1  1  1  v  0.000214938188477  -0.000129610019345  -0.00034809215485
6.36767248882  3.54345993752  7.02587416247  m  1  1  1  v  -7.75600223997e-05  0.000240133229021  -0.000261956090395
3.22632642838  3.52330746902  7.04500419749  m  1  1  1  v  7.29578321378e-05  -0.000248957623943  0.00013169092873
4.7742965169  0.817144487291  6.99719083439  m  1  1  1  v  0.000192337640264  4.97988295269e-05  -8.08866168125e-06
-1.44127966464  4.45795794111  9.6718913492  m  1  1  1  v  -0.000267057750716  -0.000118138340418  -0.000343098965507
1.70829906272  4.4698037952  9.62818632166  m  1  1  1  v  0.000253519478271  0.000257761649076  0.000144355422292
0.171289432488  7.16084040635  9.68683715783  m  1  1  1  v  0.000182795278439  -5.52831995415e-05  0.000270741508977
6.3205184126  3.55865156976  1.89026606503  m  1  1  1  v  0.000171288742937  0.000100222921114  -0.000262799636949
3.19199941383  3.57056277881  1.90829290861  m  1  1  1  v  0.000220899363465  -0.000144588179219  -0.000154833221219
4.73351867857  0.844457035518  1.91338712358  m  1  1  1  v  4.68963416458e-05  -9.77162240537e-05  -7.80421623885e-05
3.20574094225  1.77001834872  4.47383873644  m  1  1  1  v  1.79583587996e-05  9.12434657873e-05  -0.000255032536205
6.33990607099  1.71415925955  4.42738528574  m  1  1  1  v  0.000195125661523  4.54801783279e-05  2.17184787096e-05
4.80115328847  4.46680117496  4.4582284382  m  1  1  1  v  -6.19471448476e-05  7.78389973206e-05  -0.000261636998719
1.7141842794  6.26181241301  7.10821822192  m  1  1  1  v  6.35067632279e-05  -0.000197682911334  0.000257268751672
-1.44304559058  6.31197609765  7.12746189849  m  1  1  1  v  4.69146502648e-05  -7.23134728714e-06  0.000160710168112
0.119210828804  3.58201516994  7.08462825792  m  1  1  1  v  0.000208419382065  -0.00025494033279  -5.52524562711e-05
3.23360700272  1.7301209566  9.60349100882  m  1  1  1  v  -0.000134277463613  -9.94662671837e-05  -0.000136266449003
6.3820941348  1.66881581047  9.56190298758  m  1  1  1  v  0.000149653656128  -0.000381130202625  -2.95423755516e-05
4.8416382175  4.41777096257  9.60937472382  m  1  1  1  v  -0.000168401741707  -0.000165219085195  0.000309507978785
1.6520506219  6.29226525024  1.95902574379  m  1  1  1  v  0.000101997638365  -7.24612441609e-05  0.000245191251731
-1.48093388536  6.29792764059  2.00866875379  m  1  1  1  v  -3.01705914053e-05  -3.27011904895e-05  0.000340188030807
0.0505886687354  3.61003936012  1.93444162799  m  1  1  1  v  -0.000259744558879  0.000169946944636  -7.69226551494e-05
