ATOMIC_SPECIES
Si 28.085 Si_ONCV_PBE-1.0.upf
C 12.011 C_ONCV_PBE-1.0.upf

LATTICE_CONSTANT
1.8897261254578281

LATTICE_VECTORS
9.341154818632418 0.0 0.0 
-4.521446839553692 8.200693421490923 0.0 
0.2162503880598624 -0.11850089180027759 10.164045640738276 

ATOMIC_POSITIONS
Cartesian    # Cartesian(Unit is LATTICE_CONSTANT)
Si
0.0
36
0.038596146174 1.792450966035 2.574397165545 1 1 1
3.219836435193 7.187075124522 2.577105694468 1 1 1
-3.038076277043 7.244126264569 2.641702464453 1 1 1
4.810325906330 6.251984109335 5.116797460025 1 1 1
1.625720520942 0.857660495790 5.119908795708 1 1 1
7.893060969207 0.807945475866 5.056179738905 1 1 1
0.098026580167 1.766859184866 7.722398816997 1 1 1
3.279283420857 7.154122451836 7.716015283614 1 1 1
-2.982333167998 7.212586065621 7.777955584071 1 1 1
4.869189657143 6.225137760325 10.265754353967 1 1 1
1.680431980108 0.826364696338 10.262847035574 1 1 1
7.944405491761 0.772531642424 10.194384523172 1 1 1
-1.496541320851 4.518556973805 2.608990054874 1 1 1
1.640192645225 4.494671378212 2.580839520777 1 1 1
0.089618371205 7.214489498092 2.603650792065 1 1 1
6.344205976569 3.528596957909 5.085723305348 1 1 1
3.214172371910 3.555333550293 5.126535195280 1 1 1
4.759790170673 0.833021771240 5.088473525566 1 1 1
-1.445362121757 4.483845269131 7.741322579696 1 1 1
1.683785438415 4.465346621982 7.711645160284 1 1 1
0.148467397259 7.185715882526 7.745524254929 1 1 1
6.404082423857 3.494128480063 10.230998332993 1 1 1
3.279509839374 3.526497081918 10.267174637486 1 1 1
4.811410725390 0.803103262906 10.227233387279 1 1 1
3.170161550388 1.761054594789 2.547113986195 1 1 1
6.311117294356 1.735443267742 2.513480230738 1 1 1
4.764889138698 4.461444291311 2.542035401636 1 1 1
1.680815733355 6.279133866279 5.153830547399 1 1 1
-1.454092396314 6.308521392226 5.191852953693 1 1 1
0.085950417840 3.585503575141 5.152515594215 1 1 1
3.230943511904 1.730179194839 7.680650641320 1 1 1
6.356939130297 1.709625360876 7.651190188009 1 1 1
4.818046942801 4.428552702584 7.680489045355 1 1 1
1.731497096210 6.247321055872 10.292383823289 1 1 1
-1.397411006030 6.280257220916 10.326528256180 1 1 1
0.139014179557 3.550918541670 10.288192450828 1 1 1
C
0.0
36
0.063687048745 1.780855320224 4.508252097964 1 1 1
3.246184367374 7.176912809208 4.507258232977 1 1 1
-3.013937763916 7.231036408211 4.570199332744 1 1 1
4.833637309649 6.234851052133 7.050843181590 1 1 1
1.652193226063 0.852012960351 7.054537641663 1 1 1
7.916169837744 0.786400094620 6.992037452621 1 1 1
0.119700796464 1.752295574560 9.645422135367 1 1 1
3.301238240903 7.146168482859 9.641462478793 1 1 1
-2.969809537355 7.203213647268 9.706924617322 1 1 1
4.777342216069 6.274660821364 1.916886380142 1 1 1
1.592894370316 0.877285613991 1.919652573845 1 1 1
7.858262402568 0.824205059619 1.847293837911 1 1 1
-1.480045768934 4.508035720912 4.535614631528 1 1 1
1.652035084856 4.475221050303 4.509601787380 1 1 1
0.116008665167 7.197147208431 4.543901402270 1 1 1
6.366609288832 3.513724436180 7.018640928086 1 1 1
3.238731775472 3.543350275428 7.054245463007 1 1 1
4.779183890007 0.814783091150 7.016758467795 1 1 1
-1.416884861115 4.473126680227 9.674895140050 1 1 1
1.708071148835 4.454668155231 9.642886736194 1 1 1
0.168969698931 7.174638249011 9.676431214817 1 1 1
6.315376940340 3.547270800084 1.882416278543 1 1 1
3.180670120379 3.574699184231 1.912598795638 1 1 1
4.720235723170 0.849670534057 1.887869484088 1 1 1
3.199984294837 1.753535558521 4.477470203477 1 1 1
6.324149645236 1.723229880248 4.439093721180 1 1 1
4.784560624943 4.447152181014 4.474965278324 1 1 1
1.702673856972 6.269315458857 7.080543992147 1 1 1
-1.439377868074 6.302482213277 7.117081748703 1 1 1
0.110636689105 3.575089033453 7.086085094958 1 1 1
3.246782105543 1.720203447105 9.610376642911 1 1 1
6.375581332606 1.688753957505 9.574434482073 1 1 1
4.838409282058 4.418490206838 9.610584802768 1 1 1
1.648197452327 6.304713421732 1.947789345175 1 1 1
-1.482686387447 6.326700366621 1.974430081155 1 1 1
0.049067808942 3.601767318910 1.942165529679 1 1 1

NUMERICAL_ORBITAL
Si_gga_9au_100Ry_3s3p2d.orb
C_gga_9au_100Ry_3s3p2d.orb
