ATOMIC_SPECIES
Rh 102.9100 Rh_ONCV_PBE-1.0.upf upf201
C  12.0000 C_ONCV_PBE-1.0.upf upf201
O  16.0000 O_ONCV_PBE-1.0.upf upf201

NUMERICAL_ORBITAL
Rh_gga_7au_100Ry_4s2p2d1f.orb
C_gga_7au_100Ry_2s2p1d.orb
O_gga_7au_100Ry_2s2p1d.orb

LATTICE_CONSTANT
1.8897261246

LATTICE_VECTORS
        5.4353337924        0.0000000000        0.0000000000
        5.4353337924        9.4142742845        0.0000000000
        0.0000000000        0.0000000000       23.8758629152

ATOMIC_POSITIONS
Direct

Rh #label
0.0000   #magnetism
40 #number of atoms
        0.0000000000        0.0000000000        0.0000000000 m 0 0 0
        0.3333333333        0.1666666667        0.0929376139 m 0 0 0
        0.1666666667        0.0833333333        0.1858752278 m 0 0 0
        0.0000256643        0.9999569523        0.2791235684 m 1 1 1
        0.3347587895        0.1676606934        0.3726623143 m 1 1 1
        0.0000000000        0.2500000000        0.0000000000 m 0 0 0
        0.3333333333        0.4166666667        0.0929376139 m 0 0 0
        0.1666666667        0.3333333333        0.1858752278 m 0 0 0
        0.0009785795        0.2490106945        0.2785462325 m 1 1 1
        0.3377238694        0.4122932294        0.3694766115 m 1 1 1
        0.0000000000        0.5000000000        0.0000000000 m 0 0 0
        0.3333333333        0.6666666667        0.0929376139 m 0 0 0
        0.1666666667        0.5833333333        0.1858752278 m 0 0 0
        0.0001328114        0.4998852137        0.2791182918 m 1 1 1
        0.3299823571        0.6676714985        0.3727116969 m 1 1 1
        1.0000000000        0.7500000000        0.0000000000 m 0 0 0
        0.3333333333        0.9166666667        0.0929376139 m 0 0 0
        0.1666666667        0.8333333333        0.1858752278 m 0 0 0
        0.9993023810        0.7506479107        0.2773634222 m 1 1 1
        0.3319308094        0.9180963603        0.3732149568 m 1 1 1
        0.5000000000        0.0000000000        0.0000000000 m 0 0 0
        0.8333333333        0.1666666667        0.0929376139 m 0 0 0
        0.6666666667        0.0833333333        0.1858752278 m 0 0 0
        0.5000581372        0.9999541635        0.2791167893 m 1 1 1
        0.8300459170        0.1676325003        0.3726856997 m 1 1 1
        0.5000000000        0.2500000000        0.0000000000 m 0 0 0
        0.8333333333        0.4166666667        0.0929376139 m 0 0 0
        0.6666666667        0.3333333333        0.1858752278 m 0 0 0
        0.4994192752        0.2505986379        0.2773384171 m 1 1 1
        0.8320903078        0.4179354679        0.3731640721 m 1 1 1
        0.5000000000        0.5000000000        0.0000000000 m 0 0 0
        0.8333333333        0.6666666667        0.0929376139 m 0 0 0
        0.6666666667        0.5833333333        0.1858752278 m 0 0 0
        0.5000961980        0.4998861828        0.2791113736 m 1 1 1
        0.8345866444        0.6676473146        0.3727370712 m 1 1 1
        0.5000000000        0.7500000000        0.0000000000 m 0 0 0
        0.8333333333        0.9166666667        0.0929376139 m 0 0 0
        0.6666666667        0.8333333333        0.1858752278 m 0 0 0
        0.5008767919        0.7490952471        0.2785821775 m 1 1 1
        0.8376694419        0.9123510148        0.3694846519 m 1 1 1

C #label
0.0000   #magnetism
2 #number of atoms
        0.1652890402        0.0849362718        0.4299250732 m 1 1 1
        0.6651268342        0.5844027878        0.4299352377 m 1 1 1

O #label
0.0000   #magnetism
2 #number of atoms
        0.1656855924        0.0848267224        0.4798271427 m 1 1 1
        0.6655793851        0.5835294827        0.4798537990 m 1 1 1
