ATOMIC_SPECIES
Fe 16.0 Fe_ONCV_PBE-1.2.upf

LATTICE_CONSTANT
5.215707902952273  // add lattice constant

LATTICE_VECTORS
1 0 0
0 1 0
0 0 1 

ATOMIC_POSITIONS
Direct

Fe
1.0
2
    0.000000000000    0.000000000000    0.000000000000 1 1 1
    0.500000000000    0.500000000000    0.500000000000 1 1 1
