ATOMIC_SPECIES
C 12.011 C_ONCV_PBE-1.0.upf
H 1.008  H_ONCV_PBE-1.0.upf

NUMERICAL_ORBITAL
C_gga_8au_100Ry_2s2p1d.orb
H_gga_8au_100Ry_2s1p.orb

LATTICE_CONSTANT
1.8897268777

LATTICE_VECTORS
10 0 0 
0 2.4595121466 0
0 0 45

ATOMIC_POSITIONS
Cartesian_angstrom

C
0
32
5 5.0001 6 mag -1.0
5 6.2645 8.1602 mag -0.8
5 5.041 10.2795 mag -0.6
5 6.2645 12.3987 mag -0.4
5 5.041 14.518 mag -0.2
5 6.2645 16.6373 mag 0
5 5.041 18.7566 mag 0 
5 6.2645 20.8758 mag 0
5 5.041 22.9951 mag 0 
5 6.2645 25.1144 mag 0
5 5.041 27.2336 mag 0
5 6.2645 29.3529 mag 0
5 5.041 31.4722 mag 0
5 6.2645 33.5915 mag 0
5 5.041 35.7107 mag 0
5 6.2645 37.83 mag 0
5 6.2236 6.7064 mag 0
5 5.041 8.8666 mag 0
5 6.2645 10.9859 mag 0
5 5.041 13.1052 mag 0
5 6.2645 15.2244 mag 0
5 5.041 17.3437 mag 0
5 6.2645 19.463 mag 0
5 5.041 21.5822 mag 0
5 6.2645 23.7015 mag 0
5 5.041 25.8208 mag 0
5 6.2645 27.9401 mag 0
5 5.041 30.0593 mag 0.2
5 6.2645 32.1786 mag 0.4
5 5.041 34.2979 mag 0.6
5 6.2645 36.4172 mag 0.8
5 5.041 38.5364 mag 1.0

H
0
2
5 5 5 mag 0
5 5.0409 39.5364 mag 0

