ATOMIC_SPECIES
O 1.00 ../../../psp_orb/O_ONCV_PBE-1.0.upf
H 1.00 ../../../psp_orb/H_ONCV_PBE-1.0.upf

LATTICE_CONSTANT
1

LATTICE_VECTORS
28.0 0.0 0.0 
0.0 28.0 0.0 
0.0 0.0 28.0 

ATOMIC_POSITIONS
Cartesian

O
0.0
1
18.971791584200 14.636319223200 6.500625840200 0 0 0
H
0.0
2
17.970486912800 16.173534788900 6.738651786840 0 0 0
19.434885443000 14.623547780100 4.715846507760 0 0 0

NUMERICAL_ORBITAL
../../../psp_orb/O_gga_7au_100Ry_2s2p1d.orb
../../../psp_orb/H_gga_6au_100Ry_2s1p.orb

NUMERICAL_DESCRIPTOR
../../../psp_orb/jle.orb
