ATOMIC_SPECIES
Si 28.085 Si_ONCV_PBE-1.0.upf upf201
C 12.011 C_ONCV_PBE-1.0.upf upf201

NUMERICAL_ORBITAL
Si_gga_9au_100Ry_3s3p2d.orb
C_gga_9au_100Ry_3s3p2d.orb

LATTICE_CONSTANT
1.88972612546

LATTICE_VECTORS
8.61061272298 0 0 #latvec1
0.155971207545 8.50159420946 0 #latvec2
0.110363608509 0.204396196177 8.50971802415 #latvec3

ATOMIC_POSITIONS
Cartesian

Si #label
0 #magnetism
32 #number of atoms
3.29215909462  1.09779837089  3.22510978176  m  1  1  1  v  2.01770079589e-05  -6.57608105145e-06  1.39095932127e-05
3.32301976527  1.15223997495  7.57797096962  m  1  1  1  v  8.30615591861e-06  -1.58144801691e-05  2.77912654796e-05
3.33238895144  5.43994047807  3.16978397335  m  1  1  1  v  -5.11394045277e-05  1.26380563744e-05  -1.14840056858e-05
3.35686021907  5.48800254243  7.52203278084  m  1  1  1  v  4.96141886441e-05  -5.51006930217e-05  4.26432159899e-06
7.63734464243  1.05788709755  3.19728318764  m  1  1  1  v  1.3981931597e-05  3.70634720726e-05  -2.74168264091e-05
7.66597418363  1.11077634486  7.55504782908  m  1  1  1  v  -7.73241070022e-08  -6.90050982369e-06  6.15865379865e-06
7.67722465349  5.40734001796  3.1529328382  m  1  1  1  v  -3.58965021797e-05  -5.97242840941e-06  -2.11758762705e-07
7.71409342533  5.45961847911  7.49937040663  m  1  1  1  v  2.34993472503e-05  2.34035127965e-05  -3.99428281672e-05
3.30315278547  3.24212404219  1.02868050479  m  1  1  1  v  4.81841960591e-05  1.20144715974e-05  -1.56858076568e-06
3.31986505497  3.30131220252  5.37511742412  m  1  1  1  v  4.06927322086e-06  -1.6765463499e-05  2.32956136015e-05
3.3419220448  7.59190426595  0.978499741168  m  1  1  1  v  -3.95542596574e-06  4.13295679698e-05  -7.14952199395e-06
3.36440965379  7.65107520065  5.3202028926  m  1  1  1  v  1.46951061928e-05  -3.1339250761e-05  -2.41910611794e-05
7.6444180701  3.20124432392  1.00255719764  m  1  1  1  v  -6.47526364639e-06  -1.96149755154e-05  -2.81589208966e-05
7.67489698794  3.25636844586  5.34747135793  m  1  1  1  v  6.34691779131e-06  2.19435895493e-05  -9.08215779425e-06
7.69311454262  7.54887324756  0.944020983552  m  1  1  1  v  -9.59226192736e-06  -1.59733164086e-05  -4.43537373568e-05
7.70536037716  7.59866116459  5.29362426603  m  1  1  1  v  -5.22182108639e-07  -1.40244338753e-05  3.22663412498e-05
1.10036851372  1.09660333517  1.06200877491  m  1  1  1  v  -3.92118564325e-06  5.45610148414e-05  -4.34923931481e-07
1.13467571813  1.13665304013  5.42094910877  m  1  1  1  v  -2.20090657927e-05  -5.3545044529e-07  1.69975370252e-05
1.1397293255  5.4375096221  1.02144706541  m  1  1  1  v  2.00978039164e-07  6.24659718675e-06  -2.38537202989e-05
1.17412368728  5.4900515986  5.36062206398  m  1  1  1  v  1.69819284491e-05  3.52999992801e-05  -3.60001398044e-05
5.45402496907  1.05075994444  1.03898653846  m  1  1  1  v  4.89594820294e-06  -2.0523317423e-05  -5.42088695133e-06
5.47783185748  1.10728635783  5.38906435152  m  1  1  1  v  1.76307795907e-05  2.66566218539e-05  -1.40513262844e-05
5.49075787484  5.39049000653  0.992801093905  m  1  1  1  v  -1.39452949617e-05  1.09830283351e-05  -2.84603737904e-05
5.51653413742  5.44862611094  5.33760431121  m  1  1  1  v  2.5907775622e-05  1.544598437e-05  1.18033720827e-06
1.13820701899  3.29145123008  3.20890605079  m  1  1  1  v  2.15920527027e-06  2.49228455946e-05  -4.20510260939e-06
1.16174938961  3.34281763428  7.56454390875  m  1  1  1  v  1.17880211309e-05  -7.82244256971e-06  2.94142589223e-05
1.18498805127  7.63834161473  3.15891942746  m  1  1  1  v  -1.17780439914e-06  1.69858240707e-05  -3.73185656953e-06
1.20353516781  7.68340611832  7.51772793401  m  1  1  1  v  -4.55736898023e-05  5.10088508439e-05  -2.49860542668e-05
5.49026173986  3.23773771459  3.1857438746  m  1  1  1  v  1.22971176603e-05  -3.47424892603e-05  2.40722837765e-05
5.51619982246  3.30383788621  7.53025507312  m  1  1  1  v  -2.49934501961e-05  -5.18425507666e-06  -3.9190123572e-05
5.53368520305  7.5967048706  3.1293610863  m  1  1  1  v  -2.88503001617e-05  -1.29233618409e-05  3.42987239032e-05
5.55487532282  7.65017797358  7.49227441078  m  1  1  1  v  -6.06606577587e-05  1.41101308693e-06  3.926419669e-05

C #label
0 #magnetism
32 #number of atoms
0.351779174641  8.62686161254  8.46308419342  m  1  1  1  v  5.14033805791e-05  -3.53975179349e-05  5.01615598597e-05
0.270960503122  8.47185244389  4.29094466488  m  1  1  1  v  -3.49564946104e-05  -2.72899728935e-05  -3.96639917282e-05
0.240451898101  4.46094753692  8.40321909025  m  1  1  1  v  1.11855563644e-05  -5.54331374466e-05  -2.85202011965e-05
0.153848640578  4.32064222804  4.2396156792  m  1  1  1  v  1.02670149018e-05  -1.13812066724e-05  9.17421495083e-06
4.62219037063  8.66463452215  8.48318789327  m  1  1  1  v  -3.4564990281e-05  2.16206945678e-05  -2.69083881351e-05
4.53903605402  8.50700737825  4.32037785914  m  1  1  1  v  -6.61145009469e-06  -2.37718539561e-05  -2.21947894974e-05
4.49517175822  4.51378900993  8.42754119352  m  1  1  1  v  2.42805038455e-05  2.72167701778e-05  1.51302756405e-06
4.41064879321  4.35610317559  4.26508775809  m  1  1  1  v  8.7689095425e-07  2.86096704786e-05  4.79244357726e-05
0.111387082517  2.12907202718  2.09685739288  m  1  1  1  v  -6.32455245672e-06  -2.95111270991e-05  -7.52984863861e-06
0.14739605913  2.1668378316  6.44667535226  m  1  1  1  v  4.28953101311e-05  1.90035897295e-05  5.74391270615e-05
0.157137309431  6.47082245015  2.0351980848  m  1  1  1  v  5.99544140987e-06  -4.4977418739e-05  -4.45290602256e-05
8.79991770752  6.5168326787  6.38890997448  m  1  1  1  v  -2.17049546518e-05  -7.70098582005e-05  2.80687337577e-05
4.38299815897  2.15795810734  2.12694257995  m  1  1  1  v  7.8077306335e-05  -4.91752671965e-05  1.00554887098e-05
4.41558296309  2.21228477933  6.46292360001  m  1  1  1  v  -3.2330219295e-05  9.54760314657e-06  6.06049947329e-05
4.42798588264  6.50335783881  2.06385361728  m  1  1  1  v  1.09070153235e-08  4.06399991487e-05  5.07395758176e-05
4.44612406535  6.55786157335  6.41397035857  m  1  1  1  v  1.92861628598e-05  4.80724403036e-06  9.74149433452e-07
2.34337907693  8.50938817031  2.15938848125  m  1  1  1  v  7.28418113835e-05  7.96953246256e-07  -1.48459162896e-05
2.36894462495  8.56377955034  6.50890092115  m  1  1  1  v  5.35786845957e-06  3.08828604155e-05  -4.98106218971e-05
2.22803668344  4.35110594148  2.10320862779  m  1  1  1  v  1.5888781866e-05  -4.7517400958e-05  4.30355136038e-05
2.2519848444  4.40073379078  6.44942842489  m  1  1  1  v  -4.84089564358e-05  -2.56876038298e-05  -4.50283348848e-05
6.69178910072  8.46842651844  2.13266731599  m  1  1  1  v  -3.26623807208e-05  9.87912378403e-06  -4.73535894507e-05
6.72269780292  8.50696766177  6.48071948269  m  1  1  1  v  1.72878384077e-05  2.54460938929e-06  1.72216041491e-05
6.5705934108  4.31901994724  2.08134095633  m  1  1  1  v  -7.52639675946e-05  1.62555048001e-05  1.16192960044e-05
6.59934889391  4.36242701578  6.42829683805  m  1  1  1  v  -3.08144377278e-05  -2.69444770293e-05  9.29187560716e-05
2.30222875264  2.35873104399  8.47283330067  m  1  1  1  v  1.77852848625e-05  -7.08398904615e-07  -1.82397431004e-05
2.22379801245  2.20449562078  4.30770881383  m  1  1  1  v  2.79222341792e-05  -6.29508099695e-05  3.99229741533e-05
2.34391937704  6.70520813141  8.41686173905  m  1  1  1  v  1.61708984036e-05  -1.70515722088e-05  7.68769641182e-05
2.25936513565  6.55097055179  4.25713325028  m  1  1  1  v  -1.54466266158e-05  -4.75494084166e-06  -7.56634806296e-05
6.65754099037  2.31648890492  8.43731797228  m  1  1  1  v  1.4387864644e-05  -3.11479706246e-05  3.06544237109e-06
6.57148188362  2.16594824566  4.28012201205  m  1  1  1  v  -2.4696192286e-05  -2.63961180814e-05  6.35710686503e-05
6.69348275817  6.65991532579  8.39910730339  m  1  1  1  v  4.6622299377e-05  4.52199978439e-05  -2.14374462784e-05
6.60654512682  6.50630518084  4.22774124663  m  1  1  1  v  -4.9160368437e-05  5.45753590777e-05  5.97246082081e-05
