ATOMIC_SPECIES
Si 28.085 Si_ONCV_PBE-1.0.upf upf201
C 12.011 C_ONCV_PBE-1.0.upf upf201

NUMERICAL_ORBITAL
Si_gga_9au_100Ry_3s3p2d.orb
C_gga_9au_100Ry_3s3p2d.orb

LATTICE_CONSTANT
1.88972612546

LATTICE_VECTORS
9.47562661596 0 0 #latvec1
-4.59332203292 7.77105210006 0 #latvec2
0.0234179879541 0.110186650915 9.86628711289 #latvec3

ATOMIC_POSITIONS
Cartesian

Si #label
0 #magnetism
36 #number of atoms
0.0219199156949  1.80588170047  2.51217494073  m  1  1  1  v  6.4051151215e-05  0.000269188262711  -0.000151432344503
3.16300743651  7.0693186159  2.49537859089  m  1  1  1  v  0.000264568820324  7.76637188599e-05  -0.000230529503437
-3.0110023549  7.10706726257  2.47963194086  m  1  1  1  v  0.0001277222845  -8.00648023746e-05  0.000165130054724
4.65253028825  6.18413332465  4.9809717759  m  1  1  1  v  -5.12261161288e-05  3.90053517496e-06  -6.83174197214e-06
1.52800247481  0.906817000343  5.03543099407  m  1  1  1  v  -6.80258422353e-05  4.64211945373e-05  0.000110783452748
7.68972230188  0.879917227663  5.04399953657  m  1  1  1  v  -7.70216391036e-05  9.3665460296e-05  3.09619571405e-05
0.0164077757265  1.81008268145  7.56608868988  m  1  1  1  v  0.000236132658603  -2.50810587906e-05  7.3524636494e-05
3.12473596433  7.10380862335  7.50953141653  m  1  1  1  v  -4.14838967336e-05  -0.000351665586028  -2.33366237393e-05
-2.99429731541  7.16737352326  7.54308432997  m  1  1  1  v  -0.00013247179821  5.71310816098e-05  0.000254929632661
4.63450267966  6.11688151428  0.169143432991  m  1  1  1  v  -0.000175665362091  -0.000156609581893  5.06236719501e-05
1.52652474284  0.84050474428  0.189064936191  m  1  1  1  v  -8.37665460064e-05  0.000319434112823  7.05637271942e-07
7.69165458774  0.781663943669  0.173663985617  m  1  1  1  v  0.000107544045082  0.000273700295171  -0.000176803655708
-1.52383212958  4.4430754348  2.51510252443  m  1  1  1  v  0.000142648241377  1.01266609228e-05  0.000181529767695
1.56955365578  4.45062743808  2.50946419598  m  1  1  1  v  -3.52263215795e-05  -6.90214614863e-05  0.000178693053343
0.0645914745411  7.09498434022  2.47917804715  m  1  1  1  v  -5.98263613123e-05  0.000127006736694  0.000204757936414
6.18405871435  3.51984236181  5.03413351573  m  1  1  1  v  7.6113440775e-05  -0.000213117360372  -0.000134734393223
3.0949453506  3.54187292472  5.01223842234  m  1  1  1  v  -0.000234474106296  5.45379060154e-05  -0.000154222110514
4.60120144459  0.887328981403  5.03142129987  m  1  1  1  v  -0.000157611949546  4.04149028107e-05  -0.000107304310161
-1.52035225896  4.49008077581  7.50962959409  m  1  1  1  v  -0.000210327019605  0.000177499456352  2.92856219571e-05
1.59432320562  4.47343304457  7.53232447376  m  1  1  1  v  5.4462141655e-05  -3.09075507487e-05  0.000190246084988
0.0749357317806  7.13262321895  7.51562062834  m  1  1  1  v  0.00015917040904  0.000167420913796  0.000152815161464
6.14390764128  3.43037120546  0.173423170671  m  1  1  1  v  -8.14799435534e-05  6.55116648496e-06  -4.23720520245e-05
3.10270376916  3.46072413654  0.187685781982  m  1  1  1  v  6.3419606482e-05  -0.000168060890135  -2.94694161477e-05
4.61468239664  0.811267444918  0.168290187019  m  1  1  1  v  -8.69935805184e-05  0.000170072824133  -5.22774932381e-05
3.08928680438  1.77513049263  2.50765295006  m  1  1  1  v  9.60065031558e-05  -0.000267679347245  0.000224410059275
6.13719757266  1.74523647187  2.5106701559  m  1  1  1  v  0.00026738972945  0.00012303628095  -8.86219522147e-06
4.63259347455  4.41111686898  2.50302114628  m  1  1  1  v  0.000145367107904  0.000186683476935  3.62349602198e-05
1.61716078238  6.2370550192  5.00136241808  m  1  1  1  v  -4.31226341593e-05  8.67086506037e-06  2.08417663876e-06
-1.46363556262  6.25814851491  4.98254570959  m  1  1  1  v  0.000162686274724  0.000135008702841  -0.000136184935819
0.0497329292358  3.57535293014  5.01026233495  m  1  1  1  v  -0.000141852524188  0.000211867749439  -0.000159387818159
3.08113648643  1.77454819257  7.55047280324  m  1  1  1  v  -0.000247349586505  6.9184816217e-05  7.34236534051e-05
6.18101193007  1.78088646193  7.53596828208  m  1  1  1  v  0.000217969895524  -3.90536018858e-05  5.85104647853e-05
4.64331044864  4.44066186779  7.52462355412  m  1  1  1  v  -8.90001332651e-05  2.68520521908e-06  0.000214127449635
1.58752566424  6.13261930004  0.15422015192  m  1  1  1  v  -5.69576126358e-05  -9.25518683047e-05  -5.13968035681e-05
-1.50826863766  6.15929507986  0.169183934807  m  1  1  1  v  -5.52633357488e-05  -1.55666848494e-05  7.89507112614e-06
0.0340126973819  3.48794071956  0.14054158897  m  1  1  1  v  0.000129549339479  -6.88478438391e-05  -0.000217687110704

C #label
0 #magnetism
36 #number of atoms
-0.0140261876284  1.8081699292  4.40978896951  m  1  1  1  v  0.00016088124587  5.3786607382e-05  2.54756712941e-05
3.12674204032  7.04515489378  4.33778586142  m  1  1  1  v  0.000259507370868  -3.39302057778e-05  -0.000436555081731
-3.01425512943  7.12931081059  4.37106100627  m  1  1  1  v  -0.000336316656925  0.000124129484593  0.000274456144046
4.70965698312  6.18197908725  6.87088834689  m  1  1  1  v  1.77987054156e-05  -0.000348144254501  0.000174768271568
1.53191627348  0.950144224061  6.89171038795  m  1  1  1  v  -0.000243878252146  -0.000148536144149  -0.000313811012213
7.70220177893  0.895480846796  6.87698572675  m  1  1  1  v  -6.99696786117e-05  -0.000278395817307  0.000121803807758
-0.0182776862863  1.81205186387  9.43655570915  m  1  1  1  v  -4.85399595659e-05  -0.000117104582518  0.000139182153047
3.13537956941  7.07805354538  9.37574647748  m  1  1  1  v  -0.000160665548413  0.000233618559445  -2.35728596787e-05
-2.99732595946  7.14366902514  9.41128476613  m  1  1  1  v  0.000256497577779  8.33313457181e-05  -1.32913808345e-06
4.67550423157  6.15430110602  1.89855025365  m  1  1  1  v  -4.3002638514e-05  -5.48953279502e-06  0.000548165087358
1.54116653168  0.93133671597  1.90645620935  m  1  1  1  v  0.000143299534588  0.000262556461763  7.26942832041e-05
7.69629582526  0.902976462728  1.92544697592  m  1  1  1  v  0.000237594763635  9.3999905705e-06  9.15221646276e-05
-1.53238101345  4.43798445718  4.37167406216  m  1  1  1  v  -0.000295003165773  -0.000406383396685  -0.000113006741733
1.56575759334  4.46592553154  4.36275927567  m  1  1  1  v  -0.000426334650503  9.73279592349e-05  -1.50580680154e-05
0.0783209377658  7.08998690474  4.38397504521  m  1  1  1  v  0.000209770093407  -0.00025882771563  -0.000378739736703
6.19534186179  3.56711377947  6.91225026201  m  1  1  1  v  -2.45371802331e-05  0.000254538889601  -0.000262292325603
3.09013386762  3.53678021684  6.88949916015  m  1  1  1  v  7.82987787219e-05  -0.000262036923525  0.000140848970719
4.63854085054  0.937167440212  6.87040680843  m  1  1  1  v  0.000185185334951  0.00017145131802  -5.85818380771e-05
-1.51881143683  4.48089412068  9.42137073295  m  1  1  1  v  -0.000331983656483  -0.000145931723747  -0.000330441765837
1.59363460494  4.48191448003  9.38356302054  m  1  1  1  v  0.000256158891489  0.000271902336055  0.000154230826617
0.06911348258  7.1161106441  9.38898362072  m  1  1  1  v  0.000177271052616  -0.000199443956462  0.000257385815976
6.18000177593  3.51656477801  1.89279010272  m  1  1  1  v  0.000236235664457  0.000115449271559  -0.000191751055283
3.11657606029  3.51464790205  1.89276424778  m  1  1  1  v  0.000215276351922  -0.000142942073041  -9.11163154191e-05
4.63042801204  0.872968492133  1.89358009036  m  1  1  1  v  5.33477636607e-05  7.53993534919e-05  -6.53375495768e-05
3.08566840252  1.80714335627  4.38688976035  m  1  1  1  v  3.36931621472e-05  9.37928310482e-05  -0.000248760173062
6.18018180038  1.73744883802  4.38579139497  m  1  1  1  v  0.000204621447601  7.30998634729e-05  1.60443179172e-05
4.67386734353  4.43250298144  4.36836925101  m  1  1  1  v  -5.52549731345e-05  8.14028620384e-05  -0.000260231321647
1.62690495608  6.21087007782  6.92203297095  m  1  1  1  v  4.57960767392e-05  -0.00021020263072  0.000251491770145
-1.47069296681  6.25258872483  6.89762223513  m  1  1  1  v  1.74786513235e-05  -1.20440444262e-05  0.00015120373803
0.0505733045189  3.57991385398  6.89651220981  m  1  1  1  v  0.00019207187096  -0.000259211935773  -4.93616714331e-05
3.0844974824  1.8050589108  9.41549058587  m  1  1  1  v  -0.000123147711835  -6.62157498295e-05  -0.000135322745252
6.17646392565  1.76648012287  9.40632679055  m  1  1  1  v  0.000167530502034  -0.000365012738671  -3.82145337577e-05
4.66957129153  4.45784041029  9.42656332637  m  1  1  1  v  -0.000170146145888  -0.000168221678805  0.000280799540215
1.59658089833  6.1752592782  1.88594519255  m  1  1  1  v  0.000112410063985  -7.50812504878e-05  0.000323578238789
-1.47086375473  6.19015808176  1.93537667589  m  1  1  1  v  -3.95494009782e-05  -5.66813757973e-05  0.000381033970899
0.0507986703852  3.56087060268  1.88514728732  m  1  1  1  v  -0.000287491808424  0.000157498869758  -3.72896971376e-05
