ATOMIC_SPECIES
Si 28.085 Si_ONCV_PBE-1.0.upf upf201
C 12.011 C_ONCV_PBE-1.0.upf upf201

NUMERICAL_ORBITAL
Si_gga_9au_100Ry_3s3p2d.orb
C_gga_9au_100Ry_3s3p2d.orb

LATTICE_CONSTANT
1.88972612546

LATTICE_VECTORS
9.47562661596 0 0 #latvec1
-4.59332203292 7.77105210006 0 #latvec2
0.0234179879541 0.110186650915 9.86628711289 #latvec3

ATOMIC_POSITIONS
Cartesian

Si #label
0 #magnetism
36 #number of atoms
0.0257907433354  1.79178720025  2.50889751851  m  1  1  1  v  2.08222112447e-05  -5.34848695057e-06  1.34555746122e-05
3.15160586715  7.08737439809  2.4912595361  m  1  1  1  v  8.80550339023e-06  -1.47003972316e-05  2.75078094137e-05
-2.99731584674  7.1333157269  2.47610388241  m  1  1  1  v  -5.13704579227e-05  1.41017324051e-05  -1.22500325592e-05
4.65982167879  6.19112247189  4.97810959666  m  1  1  1  v  5.06210832341e-05  -5.44693153308e-05  3.69179263889e-06
1.54184409881  0.883957960281  5.03117632724  m  1  1  1  v  1.45510166814e-05  3.88272604189e-05  -2.83786180457e-05
7.69445314488  0.844155157994  5.03317982705  m  1  1  1  v  3.19016495298e-07  -5.67690194237e-06  5.60940028368e-06
0.0290446271026  1.8134899868  7.56292601427  m  1  1  1  v  -3.59402677604e-05  -4.7374172969e-06  -8.39284815119e-07
3.13187452226  7.11220635178  7.51081772346  m  1  1  1  v  2.41853717426e-05  2.49994627707e-05  -4.10585253683e-05
-2.98847052387  7.17988682257  7.52608686261  m  1  1  1  v  4.91735204922e-05  1.34704857126e-05  -2.21277793633e-06
4.64736958749  6.11182557044  0.172904718352  m  1  1  1  v  4.51656259477e-06  -1.56630651859e-05  2.29569199702e-05
1.54576556513  0.831501204338  0.202543777442  m  1  1  1  v  -3.60673516164e-06  4.31457733531e-05  -7.86229155721e-06
7.67595859756  0.761153807213  0.18876899295  m  1  1  1  v  1.52729539727e-05  -3.04159189209e-05  -2.5113218204e-05
-1.50541651816  4.44777563067  2.50251998559  m  1  1  1  v  -6.1575338024e-06  -1.85475888336e-05  -2.91298305641e-05
1.56505642269  4.44344016789  2.5023790652  m  1  1  1  v  6.82219232602e-06  2.35216016119e-05  -9.81867343464e-06
0.0730300218782  7.11651024212  2.49153758159  m  1  1  1  v  -9.31283028812e-06  -1.4861185074e-05  -4.55236308994e-05
6.17541844085  3.52476753046  5.02897629565  m  1  1  1  v  -1.31307426207e-07  -1.28883568417e-05  3.20378699329e-05
3.09607952858  3.5466524551  5.01923430297  m  1  1  1  v  -3.57207413218e-06  5.65397935133e-05  -1.06519198904e-06
4.60908744794  0.869789173319  5.01742189255  m  1  1  1  v  -2.18821980159e-05  7.66364199516e-07  1.65814596405e-05
-1.50338789848  4.48457537792  7.4970140695  m  1  1  1  v  6.00738108406e-07  7.63174208248e-06  -2.47717324543e-05
1.58554059336  4.46537226446  7.53106777624  m  1  1  1  v  1.7587874155e-05  3.70421200359e-05  -3.70673936403e-05
0.074065837856  7.12630232235  7.50820753182  m  1  1  1  v  5.3533948387e-06  -1.94670914353e-05  -6.11241697166e-06
6.14361080675  3.43367403889  0.191437230446  m  1  1  1  v  1.8244697657e-05  2.82925424105e-05  -1.48488975351e-05
3.09555213247  3.46464123094  0.191494480437  m  1  1  1  v  -1.37193485462e-05  1.24263692237e-05  -2.94349873755e-05
4.60466193127  0.788879250066  0.18232138576  m  1  1  1  v  2.66233922009e-05  1.69441610939e-05  5.69915681345e-07
3.08990951473  1.75833033634  2.49506817364  m  1  1  1  v  2.58302585565e-06  2.65374634387e-05  -4.88169442525e-06
6.14898420668  1.73349533045  2.50029040366  m  1  1  1  v  1.23301498859e-05  -6.6101623716e-06  2.91507443929e-05
4.63915307453  4.40424952181  2.50244993391  m  1  1  1  v  -7.94985273518e-07  1.85029206306e-05  -4.40263366491e-06
1.60606644131  6.23625410878  5.00566241166  m  1  1  1  v  -4.57363578911e-05  5.29439844793e-05  -2.59179792814e-05
-1.46097002697  6.26643139899  4.9781197548  m  1  1  1  v  1.28455016267e-05  -3.38609726261e-05  2.37431330036e-05
0.0432553542232  3.57315760319  5.01373617672  m  1  1  1  v  -2.49032512124e-05  -3.9395597677e-06  -4.0296572377e-05
3.094061699  1.7760716986  7.54778825664  m  1  1  1  v  -2.88074898566e-05  -1.177375606e-05  3.40952242417e-05
6.17759709831  1.76508517574  7.53930374994  m  1  1  1  v  -6.10086977136e-05  2.73674370865e-06  3.91217072301e-05
4.63803372265  4.43382854068  7.52333842793  m  1  1  1  v  3.16797747136e-05  -2.13812044224e-05  3.20890412082e-05
1.58193468256  6.14293501262  0.172308223712  m  1  1  1  v  -2.54901981885e-05  -1.6014034434e-05  -2.73751988562e-05
-1.50115654281  6.16010408622  0.187893037404  m  1  1  1  v  5.05569824879e-06  -3.46447231809e-05  -1.99980436516e-05
0.0282105892272  3.48772355307  0.156135247212  m  1  1  1  v  4.44762661357e-06  -5.48247991553e-06  4.95554440045e-06

C #label
0 #magnetism
36 #number of atoms
0.0139474508699  1.79941563901  4.40152923258  m  1  1  1  v  -3.45923957259e-05  2.31947392564e-05  -2.78639326482e-05
3.13677800805  7.09455255471  4.3774714195  m  1  1  1  v  -6.29539355816e-06  -2.27555423688e-05  -2.3092418558e-05
-2.99345394121  7.15379381463  4.38011314134  m  1  1  1  v  2.49761263203e-05  2.88595732134e-05  9.06693765834e-07
4.67489511529  6.18577541564  6.88569625574  m  1  1  1  v  1.28495588891e-06  3.02695879223e-05  4.78883536891e-05
1.53342905462  0.903277959436  6.91789916542  m  1  1  1  v  -6.00497084141e-06  -2.85653333107e-05  -8.24729123228e-06
7.68303265913  0.852661931712  6.9124909964  m  1  1  1  v  4.3819650622e-05  2.05454783474e-05  5.7519950912e-05
0.019775723258  1.83323011741  9.42879497381  m  1  1  1  v  6.4663973941e-06  -4.42216575238e-05  -4.57011079404e-05
3.13208431588  7.10224516955  9.40396000286  m  1  1  1  v  -2.15743502958e-05  -7.66476759401e-05  2.7788686913e-05
-2.99217349864  7.16963837696  9.41217070353  m  1  1  1  v  7.94339240274e-05  -4.84710844697e-05  9.5541151639e-06
4.64925290397  6.16900013882  1.86890530207  m  1  1  1  v  -3.2330166362e-05  1.09733071286e-05  6.07247172409e-05
1.54560651851  0.88952780539  1.88096433032  m  1  1  1  v  4.08331703428e-07  4.2447731878e-05  5.07380830409e-05
7.6907929461  0.851463395534  1.89798593981  m  1  1  1  v  1.99204204328e-05  6.17470375692e-06  3.61194500694e-07
-1.49680945648  4.4572489708  4.37548582127  m  1  1  1  v  7.41341011426e-05  2.11513898427e-06  -1.56532505777e-05
1.58094134262  4.4299308509  4.39419215539  m  1  1  1  v  5.82099065719e-06  3.25707082865e-05  -5.10475635618e-05
0.0811585313349  7.11200453077  4.38423859043  m  1  1  1  v  1.64812962036e-05  -4.67928482166e-05  4.29393618875e-05
6.18305753682  3.53478907693  6.9056971309  m  1  1  1  v  -4.86064611245e-05  -2.46948308442e-05  -4.62065171308e-05
3.10191372804  3.56086003406  6.89686184447  m  1  1  1  v  -3.26664090176e-05  1.13089011225e-05  -4.85603418362e-05
4.64561105279  0.903915352965  6.9038298536  m  1  1  1  v  1.78975427945e-05  3.88426838035e-06  1.68082798518e-05
-1.48091901002  4.50124538654  9.42202017119  m  1  1  1  v  -7.5791436763e-05  1.77636280098e-05  1.11371367816e-05
1.59258333278  4.46277603053  9.39651963337  m  1  1  1  v  -3.07957605584e-05  -2.59671471023e-05  9.34355141043e-05
0.0672226953779  7.16899304115  9.38480184759  m  1  1  1  v  1.84011013175e-05  5.91290742065e-07  -1.9088776954e-05
6.16102824875  3.50279358578  1.86537764113  m  1  1  1  v  2.86626021822e-05  -6.24158857762e-05  3.97885790174e-05
3.10642377362  3.51924554024  1.88108559878  m  1  1  1  v  1.67668790751e-05  -1.5952689281e-05  7.71966184706e-05
4.61595387556  0.834697961736  1.86336721006  m  1  1  1  v  -1.52391268922e-05  -3.50497059733e-06  -7.72180734408e-05
3.07596721219  1.78955340486  4.38891282804  m  1  1  1  v  1.49619373817e-05  -3.02222885472e-05  2.47818291774e-06
6.16227615633  1.74033511739  4.39877663241  m  1  1  1  v  -2.4602340928e-05  -2.54120505301e-05  6.37272349724e-05
4.65589678915  4.41134184807  4.38542507297  m  1  1  1  v  4.75924329625e-05  4.70840044982e-05  -2.23257699486e-05
1.61931818738  6.22156074169  6.89512950126  m  1  1  1  v  -4.93671056398e-05  5.65543139957e-05  5.98335135065e-05
-1.46049161324  6.2439041121  6.88963892489  m  1  1  1  v  3.89978628582e-05  -3.1159385664e-05  2.32768776533e-05
0.0454295576222  3.57450781969  6.89722984831  m  1  1  1  v  -3.89061135847e-05  2.41624980458e-05  7.0394117947e-06
3.09483929346  1.78687914148  9.42202813011  m  1  1  1  v  2.3461407892e-05  -4.56840597088e-05  6.14269478324e-07
6.16593524716  1.78274364227  9.42036407826  m  1  1  1  v  -4.13939429452e-05  -1.0535026747e-05  1.99978088189e-05
4.66703654867  4.45920498573  9.43445057693  m  1  1  1  v  3.34761223275e-06  -2.0306499026e-05  -3.42453865083e-05
1.59067873594  6.18874190619  1.85215098415  m  1  1  1  v  -1.90023527478e-05  6.25243107546e-05  6.97428300338e-05
-1.4704547362  6.22465744237  1.88747846652  m  1  1  1  v  3.04790471808e-05  -4.47570255169e-05  3.52521851059e-05
0.0553138631789  3.55596469598  1.88293775621  m  1  1  1  v  -3.61640007638e-05  -1.8604412712e-05  -4.22262413575e-05
