ATOMIC_SPECIES
Si 28.085 Si_ONCV_PBE-1.0.upf
C 12.011 C_ONCV_PBE-1.0.upf

LATTICE_CONSTANT
1.8897261254578281

LATTICE_VECTORS
8.871219335908448 -7.914783369254223e-15 -1.1177412108403328e-15 
-7.914783369254223e-15 8.871219335908448 -1.9094545366060386e-15 
-1.1177412108403328e-15 -1.9094545366060386e-15 8.871219335908448 

ATOMIC_POSITIONS
Cartesian    # Cartesian(Unit is LATTICE_CONSTANT)
Si
0.0
32
3.326707250966 1.108902416989 3.326707250948 1 1 1
3.326707250966 1.108902416989 7.762316918938 1 1 1
3.326707250966 5.544512084943 3.326707250948 1 1 1
3.326707250966 5.544512084943 7.762316918938 1 1 1
7.762316918920 1.108902416989 3.326707250948 1 1 1
7.762316918920 1.108902416989 7.762316918938 1 1 1
7.762316918920 5.544512084943 3.326707250948 1 1 1
7.762316918920 5.544512084943 7.762316918938 1 1 1
3.326707250966 3.326707250957 1.108902416997 1 1 1
3.326707250966 3.326707250957 5.544512084934 1 1 1
3.326707250966 7.762316918929 1.108902416997 1 1 1
3.326707250966 7.762316918929 5.544512084934 1 1 1
7.762316918920 3.326707250966 1.108902416997 1 1 1
7.762316918920 3.326707250957 5.544512084934 1 1 1
7.762316918920 7.762316918920 1.108902416997 1 1 1
7.762316918920 7.762316918929 5.544512084934 1 1 1
1.108902416989 1.108902416989 1.108902416997 1 1 1
1.108902416989 1.108902416989 5.544512084934 1 1 1
1.108902416989 5.544512084943 1.108902416997 1 1 1
1.108902416989 5.544512084943 5.544512084934 1 1 1
5.544512084943 1.108902416989 1.108902416997 1 1 1
5.544512084943 1.108902416989 5.544512084934 1 1 1
5.544512084943 5.544512084943 1.108902416997 1 1 1
5.544512084943 5.544512084943 5.544512084934 1 1 1
1.108902416989 3.326707250957 3.326707250948 1 1 1
1.108902416989 3.326707250957 7.762316918938 1 1 1
1.108902416989 7.762316918929 3.326707250948 1 1 1
1.108902416989 7.762316918929 7.762316918938 1 1 1
5.544512084943 3.326707250957 3.326707250948 1 1 1
5.544512084943 3.326707250957 7.762316918938 1 1 1
5.544512084943 7.762316918929 3.326707250948 1 1 1
5.544512084943 7.762316918929 7.762316918938 1 1 1
C
0.0
32
8.871219335908 0.000000000004 0.000000000020 1 1 1
8.871219335908 0.000000000003 4.435609667936 1 1 1
8.871219335908 4.435609667954 0.000000000021 1 1 1
8.871219335908 4.435609667954 4.435609667936 1 1 1
4.435609667954 0.000000000004 0.000000000023 1 1 1
4.435609667954 0.000000000004 4.435609667928 1 1 1
4.435609667954 4.435609667945 0.000000000023 1 1 1
4.435609667954 4.435609667954 4.435609667928 1 1 1
8.871219335908 2.217804833977 2.217804833968 1 1 1
8.871219335908 2.217804833968 6.653414501940 1 1 1
8.871219335908 6.653414501931 2.217804833968 1 1 1
8.871219335908 6.653414501940 6.653414501940 1 1 1
4.435609667954 2.217804833968 2.217804833968 1 1 1
4.435609667954 2.217804833968 6.653414501940 1 1 1
4.435609667954 6.653414501940 2.217804833968 1 1 1
4.435609667954 6.653414501940 6.653414501940 1 1 1
2.217804833977 0.000000000005 2.217804833968 1 1 1
2.217804833977 0.000000000004 6.653414501940 1 1 1
2.217804833977 4.435609667945 2.217804833968 1 1 1
2.217804833977 4.435609667954 6.653414501940 1 1 1
6.653414501931 0.000000000004 2.217804833968 1 1 1
6.653414501931 0.000000000003 6.653414501940 1 1 1
6.653414501931 4.435609667954 2.217804833968 1 1 1
6.653414501931 4.435609667954 6.653414501940 1 1 1
2.217804833977 2.217804833977 0.000000000023 1 1 1
2.217804833977 2.217804833968 4.435609667928 1 1 1
2.217804833977 6.653414501931 0.000000000022 1 1 1
2.217804833977 6.653414501940 4.435609667936 1 1 1
6.653414501931 2.217804833977 0.000000000021 1 1 1
6.653414501931 2.217804833968 4.435609667936 1 1 1
6.653414501931 6.653414501931 0.000000000020 1 1 1
6.653414501931 6.653414501940 4.435609667936 1 1 1

NUMERICAL_ORBITAL
Si_gga_9au_100Ry_3s3p2d.orb
C_gga_9au_100Ry_3s3p2d.orb
