ATOMIC_SPECIES
Si 28.085 Si_ONCV_PBE-1.0.upf
C 12.011 C_ONCV_PBE-1.0.upf

LATTICE_CONSTANT
1.8897261254578281

LATTICE_VECTORS
8.752978212699063 0.0 0.0 
0.23356380981380367 8.929201149882408 0.0 
-0.18693084798946802 -0.004238119480695166 8.853317030069578 

ATOMIC_POSITIONS
Cartesian    # Cartesian(Unit is LATTICE_CONSTANT)
Si
0.0
32
3.281501759972 1.047036188037 3.325822070756 1 1 1
3.227595983983 1.059270085093 7.706790565373 1 1 1
3.328061699350 5.446179726062 3.332903954415 1 1 1
3.291606344092 5.450507293157 7.725554874777 1 1 1
7.663449711945 0.990535951144 3.375134583567 1 1 1
7.622316290671 1.001309366555 7.784215726567 1 1 1
7.710544971859 5.391573032147 3.394247662023 1 1 1
7.682328309274 5.379070261655 7.744637165645 1 1 1
3.330200745704 3.245957127157 1.153261883966 1 1 1
3.279325566198 3.265440502363 5.539410925506 1 1 1
3.391585615969 7.652526100017 1.136539300422 1 1 1
3.344276377841 7.652562356760 5.510716549766 1 1 1
7.710563299072 3.197258669192 1.164696257643 1 1 1
7.667650130051 3.179414496596 5.576344561827 1 1 1
7.766710466485 7.588810971113 1.191249410768 1 1 1
7.734564566116 7.582933319586 5.595846669479 1 1 1
1.103761083921 1.084482193259 1.098840843328 1 1 1
1.061989555657 1.089565672743 5.505300652604 1 1 1
1.168255055033 5.482104815347 1.114223773355 1 1 1
1.125254878432 5.462908849287 5.509665572332 1 1 1
5.474782246890 1.018142544929 1.157591776398 1 1 1
5.454871665368 1.025607605289 5.540036477792 1 1 1
5.534987862716 5.409673171891 1.145986538222 1 1 1
5.524346964719 5.441496079323 5.555192066324 1 1 1
1.102330483113 3.280146009512 3.299959163959 1 1 1
1.066999444184 3.301458568518 7.703232025972 1 1 1
1.168235792933 7.672941295424 3.294993987042 1 1 1
1.134553758490 7.671418473916 7.699463031073 1 1 1
5.494202907577 3.206375528125 3.352674572452 1 1 1
5.449978112238 3.212896398686 7.731118182723 1 1 1
5.551853347890 7.610434896380 3.343030200798 1 1 1
5.504308739445 7.607752242916 7.745816908555 1 1 1
C
0.0
32
8.797844547097 -0.095466351489 0.094405319045 1 1 1
8.733003378402 -0.108895364383 4.479990057468 1 1 1
8.855368314765 4.269432564403 0.103828457693 1 1 1
8.796545741395 4.284666070549 4.485154271514 1 1 1
4.401405694988 -0.057352922822 0.037619306374 1 1 1
4.362039279660 -0.050804924001 4.445325205211 1 1 1
4.464512748206 4.333951576626 0.052813217566 1 1 1
4.405516899228 4.318257326006 4.455273057296 1 1 1
8.791165233360 2.082929858366 2.297467207768 1 1 1
8.743610383367 2.077658278654 6.688284291132 1 1 1
8.826684932956 6.451136956215 2.287998409736 1 1 1
8.816040101421 6.469664398828 6.667826082124 1 1 1
4.382611406598 2.118924723662 2.235205514590 1 1 1
4.367416733173 2.143423490166 6.623656686297 1 1 1
4.472311627539 6.525479289599 2.243934872630 1 1 1
4.395891826418 6.535149793394 6.646856414459 1 1 1
2.186375915597 -0.030007122046 2.234497788872 1 1 1
2.108996843249 -0.020811358955 6.615348973025 1 1 1
2.221908819662 4.355031696143 2.224284125554 1 1 1
2.197040481572 4.361677726695 6.607052235595 1 1 1
6.572261472008 -0.076073382397 2.257259528203 1 1 1
6.510878904325 -0.088251523119 6.654606582500 1 1 1
6.618193379790 4.288125185905 2.256122113850 1 1 1
6.574707002405 4.282102836223 6.665987248698 1 1 1
2.213378362634 2.171403553595 0.017225792963 1 1 1
2.182495403355 2.166817116268 4.416211451596 1 1 1
2.295806989072 6.550921293703 0.022240710384 1 1 1
2.238366316204 6.546112690500 4.403661728776 1 1 1
6.610892714404 2.103402296753 0.071609898769 1 1 1
6.566926365971 2.100154602647 4.464954987683 1 1 1
6.685465889101 6.498500918853 0.082446688395 1 1 1
6.628659338862 6.512092115484 4.468521379815 1 1 1

NUMERICAL_ORBITAL
Si_gga_9au_100Ry_3s3p2d.orb
C_gga_9au_100Ry_3s3p2d.orb
