ATOMIC_SPECIES
Fe 55.85 Fe_ONCV_PBE-1.0.upf upf201

LATTICE_CONSTANT
1.88972612584

LATTICE_VECTORS
    2.8997376650     0.0000000000     0.0000000000 #latvec1
    0.0000000000     2.8997376650     0.0000000000 #latvec2
    0.0000000000     0.0000000000     2.8997376650 #latvec3

ATOMIC_POSITIONS
Direct

Fe #label
4 #magnetism
2 #number of atoms
    0.0000000000     0.0000000000     0.0000000000 m  1  1  1 mag         4.0000000000
    0.5000000000     0.5000000000     0.5000000000 m  1  1  1 mag         4.0000000000
