ATOMIC_SPECIES
Si 28.085 Si_ONCV_PBE-1.0.upf upf201
C 12.011 C_ONCV_PBE-1.0.upf upf201

NUMERICAL_ORBITAL
Si_gga_9au_100Ry_3s3p2d.orb
C_gga_9au_100Ry_3s3p2d.orb

LATTICE_CONSTANT
1.88972612546

LATTICE_VECTORS
8.83209416288 0 0 #latvec1
-0.0298250781658 8.65214799949 0 #latvec2
-0.168294061558 0.0335942763701 8.99900852423 #latvec3

ATOMIC_POSITIONS
Cartesian

Si #label
0 #magnetism
32 #number of atoms
3.29002341116  1.1271341892  3.36128045966  m  1  1  1  v  4.16870174617e-05  -6.19798446669e-05  2.98213071304e-07
3.25324120495  1.13590042719  7.79812549873  m  1  1  1  v  -4.15428563007e-05  0.000125432522861  8.95013854182e-05
3.27898146982  5.55612532513  3.35280999517  m  1  1  1  v  7.79640876253e-05  -9.23989483895e-05  4.8597855777e-05
3.22431036626  5.56935973073  7.78673222748  m  1  1  1  v  -0.00017562375465  7.69338255648e-05  6.16817632231e-05
7.72999797788  1.14751674693  3.38896993611  m  1  1  1  v  -6.66380628637e-05  -2.84312329526e-05  2.82290454428e-06
7.68908989604  1.12594801652  7.8308199782  m  1  1  1  v  4.71400062504e-05  -1.65493698562e-05  7.29158068531e-05
7.71643417143  5.55990578085  3.39381704545  m  1  1  1  v  -9.9661034916e-05  -6.95165463153e-05  0.000114636846217
7.68118442356  5.58717991758  7.81703375834  m  1  1  1  v  0.000190909917659  0.000116458123719  -0.000114504306686
3.30310868286  3.32720271176  1.14414433843  m  1  1  1  v  -0.000161938604132  -0.000167344873423  -3.66586124769e-05
3.26282088677  3.35598863431  5.55944292064  m  1  1  1  v  -3.44045887154e-06  -4.5699149242e-05  1.00517426556e-05
3.29124355495  7.76149813195  1.11761613009  m  1  1  1  v  -0.000140500386311  -6.85147715466e-05  0.000164968858325
3.26420929727  7.7664422987  5.56985250458  m  1  1  1  v  8.68885500097e-05  -8.61836126288e-05  4.75751597689e-05
7.74670104467  3.34839741079  1.17378012482  m  1  1  1  v  -6.84560095357e-05  2.63640382028e-05  -7.07137068831e-05
7.70270094292  3.35064178595  5.61407884379  m  1  1  1  v  -2.95172287744e-05  8.45845757681e-05  1.86495154552e-05
7.73913418905  7.77195319638  1.16404018056  m  1  1  1  v  1.31536016771e-05  -4.21555114081e-05  -5.34276357492e-06
7.70178093857  7.7788766848  5.60194128255  m  1  1  1  v  5.04189604024e-06  2.96094239153e-05  -5.16691035214e-05
1.09703564036  1.12050412683  1.12064578553  m  1  1  1  v  8.20948743293e-05  0.000227355455439  0.00010653648784
1.04829774698  1.13402221341  5.55964840395  m  1  1  1  v  -2.32099417472e-05  0.000205820091565  -1.75732187309e-06
1.09064227671  5.54835921967  1.11289197954  m  1  1  1  v  -0.000176561914018  1.87703178297e-05  5.1720921289e-05
1.04921165381  5.55734814093  5.54050860265  m  1  1  1  v  -0.000191988877716  2.46456013837e-05  2.32093139876e-06
5.53715197874  1.11229237158  1.15122198757  m  1  1  1  v  3.65047343762e-05  -9.61769728071e-05  -2.23856333397e-05
5.48738073038  1.1376207073  5.59670732049  m  1  1  1  v  -2.51996024432e-05  -1.59429297185e-05  -7.04953012789e-05
5.51579236351  5.54151170006  1.14864604732  m  1  1  1  v  1.2477755199e-05  -7.84960643236e-05  -6.05903893611e-05
5.47920198035  5.56703549461  5.58185697165  m  1  1  1  v  -3.99079001799e-05  0.000124300888209  3.79617876942e-05
1.07127089666  3.32973536796  3.33178430802  m  1  1  1  v  -1.90112677677e-05  0.000169079076447  5.10149383856e-05
1.0304846161  3.33943856579  7.78489226348  m  1  1  1  v  -4.29236152795e-05  -4.43772902171e-05  -7.92319926702e-05
1.05760726276  7.78066652217  3.32029482277  m  1  1  1  v  -8.36254081401e-05  -4.48903468359e-05  -0.000108538308695
1.02438014243  7.77190546129  7.75851922348  m  1  1  1  v  -3.33041796059e-06  -5.78909235973e-05  0.000115270778987
5.50656850732  3.33769111799  3.36815686165  m  1  1  1  v  8.50792434642e-06  2.32428574816e-05  -0.000154625196296
5.47073742951  3.35029352766  7.80338044697  m  1  1  1  v  5.3592785749e-05  5.45329019862e-05  -0.000101106556697
5.49257769882  7.77547519495  3.35554096633  m  1  1  1  v  6.02034654204e-05  1.91584174349e-05  -4.54783606854e-06
5.44956352303  7.78673212202  7.80948725873  m  1  1  1  v  2.16125537026e-05  -0.000224769876598  -1.99418630657e-05

C #label
0 #magnetism
32 #number of atoms
0.0370697752961  0.0240514877002  0.0731152995607  m  1  1  1  v  2.52523192009e-06  0.000148000040611  4.57737945168e-05
-0.00636024652271  0.0468732249195  4.51318633452  m  1  1  1  v  0.000244765736693  0.000113470903577  -6.63172129323e-05
0.0169830008159  4.45684324099  0.0683952951031  m  1  1  1  v  -3.87953059671e-05  -5.02018677463e-05  -0.000209761399145
-0.0199351439127  4.45842710343  4.51548378349  m  1  1  1  v  1.51275249734e-05  -0.000106789187242  9.33056915981e-05
4.44015055864  0.0199363050945  0.0377420705655  m  1  1  1  v  -0.000107611747742  0.000220661729545  7.18093461305e-05
4.3987252362  0.0321197825122  4.48353155666  m  1  1  1  v  6.45114682515e-06  -0.00010424594811  8.24034345807e-05
4.41716796502  4.44314484218  0.0286553266886  m  1  1  1  v  -0.000229525358268  -0.000185971222732  -0.000274097828944
4.38479556784  4.45875821245  4.46280450935  m  1  1  1  v  -0.000133316866547  0.000272789566352  0.000198069313602
0.00717409238189  2.24226474907  2.29504558031  m  1  1  1  v  1.65224619277e-06  8.38619122529e-06  -8.15408672487e-05
-0.0371611812115  2.24232859396  6.74183881476  m  1  1  1  v  -3.57817803864e-05  9.1957163013e-05  -5.03837260329e-06
0.00751503002992  6.66176827492  2.28710387443  m  1  1  1  v  -0.000104792453237  4.47823124689e-05  0.000103113922216
-0.0323037237337  6.68114228365  6.71376694028  m  1  1  1  v  2.19634688526e-05  -6.814665817e-05  0.000134104772701
4.41336913672  2.23187809952  2.25869120452  m  1  1  1  v  3.75457752067e-05  -0.000109490111609  0.000150416611838
4.36882310445  2.25443915489  6.68819182389  m  1  1  1  v  -0.000118536544942  -9.56514573794e-05  -0.000268834461572
4.39481375241  6.65303277496  2.23930463806  m  1  1  1  v  2.68174200383e-05  -0.000224440808586  0.000228346461117
4.35487189505  6.67667678811  6.67149790044  m  1  1  1  v  -0.000180220855015  -0.000219194054927  -0.00030707418463
2.19113313319  0.020268918722  2.23511945658  m  1  1  1  v  -4.81064668104e-05  -5.30527503969e-06  -0.000154789516374
2.14997846095  0.0419062866426  6.67910833761  m  1  1  1  v  7.10501836632e-05  0.000198199593262  -0.000225918648305
2.18832943183  4.43997397979  2.23845993666  m  1  1  1  v  -0.000110022188893  -0.000231965305033  0.000172333081988
2.15574024362  4.46354581502  6.65565454451  m  1  1  1  v  -0.000185217208855  8.99240036525e-05  -5.29777501083e-05
6.62739879857  0.0326341123995  2.29840939019  m  1  1  1  v  -0.000104493071118  0.000103284625603  -4.95893489616e-05
6.59775338845  0.0352017461062  6.70611236994  m  1  1  1  v  -1.74111355531e-05  0.0001616773313  -3.91708895688e-05
6.64416625559  4.44020731654  2.26419558856  m  1  1  1  v  0.000135193647316  9.25725369274e-05  -0.000116904534681
6.57171496091  4.4724789007  6.70659735744  m  1  1  1  v  -4.38131263583e-05  0.000315891118138  0.000146388004107
2.21479553408  2.20801094719  0.0108322555931  m  1  1  1  v  4.91303860778e-05  6.93919263035e-07  -0.000101528353507
2.18227357059  2.23113979936  4.44024980053  m  1  1  1  v  -0.000117576088814  -0.000196157219058  9.69771582327e-05
2.2060636715  6.65381793935  0.00406589462566  m  1  1  1  v  -6.7886885904e-05  6.84029087355e-05  -9.03347835513e-05
2.16464220836  6.65986491804  4.45312197459  m  1  1  1  v  0.000116337252948  0.000116773230086  7.92699807731e-05
6.64804669217  2.24508032472  0.0663558816062  m  1  1  1  v  -9.11065084943e-05  -3.01412325188e-05  0.000147245371412
6.60563821667  2.232310778  4.49282263939  m  1  1  1  v  7.19487179467e-05  -0.000161048536227  -3.93385644777e-05
6.63769179032  6.67280384677  0.0524466855098  m  1  1  1  v  2.65088884477e-06  3.41387966765e-05  -0.000101681763685
6.60985526911  6.67587095342  4.47923885358  m  1  1  1  v  -3.08678694848e-05  3.79288058039e-05  3.77777851351e-05
