ATOMIC_SPECIES
Si 28.085 Si_ONCV_PBE-1.0.upf upf201
C 12.011 C_ONCV_PBE-1.0.upf upf201

NUMERICAL_ORBITAL
Si_gga_9au_100Ry_3s3p2d.orb
C_gga_9au_100Ry_3s3p2d.orb

LATTICE_CONSTANT
1.88972612546

LATTICE_VECTORS
8.83209416288 0 0 #latvec1
-0.0298250781658 8.65214799949 0 #latvec2
-0.168294061558 0.0335942763701 8.99900852423 #latvec3

ATOMIC_POSITIONS
Cartesian

Si #label
0 #magnetism
32 #number of atoms
3.29454605135  1.13204151857  3.37117492902  m  1  1  1  v  -0.000157982165985  -3.88831242655e-05  0.000118509048779
3.24431166117  1.14252875316  7.79718876864  m  1  1  1  v  -4.23104194291e-05  6.97434114144e-05  -0.000177751679237
3.29448902092  5.54888254748  3.34772960525  m  1  1  1  v  0.000235029316267  -2.58570746243e-05  -0.000236236635048
3.2143805243  5.57155231144  7.78209101101  m  1  1  1  v  -0.000198912928008  -5.75784762944e-05  3.78825275678e-05
7.71877816976  1.14901822982  3.38931158898  m  1  1  1  v  7.29280360818e-06  7.16209522816e-05  -5.99779337341e-05
7.68163156437  1.12444361073  7.84140539263  m  1  1  1  v  0.000145808713651  -0.000223828944395  8.30712094912e-05
7.71158605791  5.54933994376  3.39161642721  m  1  1  1  v  0.00014593590214  -0.000166121464085  -0.000177742350808
7.68388967313  5.59415627677  7.80280361787  m  1  1  1  v  0.000135417188026  0.000146447969838  -4.44928889383e-05
3.29768099815  3.33584609553  1.14727101441  m  1  1  1  v  -0.000237389916796  0.000202385432562  0.000137344576523
3.26203896717  3.35293294099  5.57330501466  m  1  1  1  v  4.99866697603e-05  -0.00015455283856  0.000165971387704
3.279724105  7.75317517875  1.12622740437  m  1  1  1  v  0.000138251786584  -3.14245480071e-05  -0.000206388690766
3.27822674257  7.76708517966  5.58023719709  m  1  1  1  v  -8.27592406502e-05  -5.59621327472e-05  0.000175004216454
7.7419597994  3.35213937241  1.15638719758  m  1  1  1  v  5.86841103799e-05  -0.00010129476455  -0.000182951451975
7.70063982684  3.3522522548  5.61825057322  m  1  1  1  v  0.000144240155317  3.44471100062e-05  8.14354958576e-05
7.72193151667  7.75031796271  1.17358403099  m  1  1  1  v  -0.000157850696385  -0.00032866499537  0.000129105321827
7.70498043096  7.7813919066  5.60476532363  m  1  1  1  v  0.000100548898237  0.000143657219258  -0.000115420521971
1.11479204748  1.13033663806  1.11891078362  m  1  1  1  v  0.000161857006776  2.35003488344e-05  4.70020594554e-05
1.03437199205  1.14410670172  5.56032434772  m  1  1  1  v  5.63818469128e-06  0.000169575663438  -0.000129153998429
1.06818521554  5.54541975016  1.11335157216  m  1  1  1  v  -7.73953111883e-05  -7.50647230872e-05  7.37434276625e-05
1.05005493701  5.55872990668  5.5336600899  m  1  1  1  v  5.70956212096e-05  -3.27402116145e-05  -7.81515899187e-05
5.54160844107  1.11915404474  1.1576707513  m  1  1  1  v  -0.000114749264949  0.000113224910961  0.000243145759645
5.4976772819  1.12892019227  5.57866578637  m  1  1  1  v  1.45368800463e-05  5.29366568678e-05  -8.77280152518e-05
5.51763218587  5.54642934261  1.1408859105  m  1  1  1  v  0.000204113922367  9.3694961381e-05  -0.000199883846421
5.48358404435  5.57549386166  5.59425110808  m  1  1  1  v  1.41647224912e-05  -8.70721533198e-05  0.000157642256727
1.06225746212  3.3407452988  3.32523044298  m  1  1  1  v  -0.000207259967061  8.3634621197e-05  0.000217435917526
1.02629618938  3.33576763101  7.7816902313  m  1  1  1  v  -8.64264073815e-05  -0.000127998649405  9.32400987535e-05
1.04956366026  7.78186286122  3.30780264875  m  1  1  1  v  -0.000187077438788  -2.79153090459e-05  9.44499293025e-05
1.03338465191  7.77862842171  7.76049725847  m  1  1  1  v  0.000172464653433  -2.81860692345e-05  -6.98294870161e-05
5.50710811843  3.3295177528  3.36818831685  m  1  1  1  v  4.69480739271e-05  -9.75342775523e-05  0.000127761296044
5.4608542819  3.34607057714  7.79929395318  m  1  1  1  v  -0.00022190614541  -4.89239156283e-05  0.000114919309627
5.49462410382  7.76559461004  3.35961856852  m  1  1  1  v  2.36763710374e-05  0.000117913193777  0.00018625125788
5.45046736438  7.78240376333  7.80096496331  m  1  1  1  v  -6.44096859158e-05  -0.000181160022157  -7.44238428557e-05

C #label
0 #magnetism
32 #number of atoms
0.0630512822503  0.0419801202929  0.0604921892887  m  1  1  1  v  -0.000213220379019  0.000117943854879  -0.000103888629055
0.0161848754991  0.0593222809924  4.50888786761  m  1  1  1  v  -4.36537989756e-05  0.000178884186715  -0.000192851002491
0.0142971422576  4.45403702038  0.0649354747483  m  1  1  1  v  -0.000257829472049  0.000254848355384  -9.60927076891e-05
0.0083033312546  4.4380360759  4.51756914636  m  1  1  1  v  -4.8688558205e-06  0.000138249546035  0.000229061869829
4.41987728935  0.0434878109222  0.0362258572417  m  1  1  1  v  0.000200322076996  0.000417410053526  0.000217522609996
4.39870692705  0.0431810132111  4.47811462223  m  1  1  1  v  0.000257966396721  0.000208404200458  0.000253730746604
4.40587183036  4.45156198908  0.0161893714943  m  1  1  1  v  0.00010352016841  -0.000315789770473  8.18512726644e-05
4.37807808472  4.4455592939  4.45715999112  m  1  1  1  v  -0.000215901864135  -0.000115435471822  3.6777568397e-05
-0.00448505235975  2.24425657041  2.29063054913  m  1  1  1  v  -0.000108788291306  -9.80472130206e-05  0.000230720469991
-0.0518380636654  2.23670785858  6.72467754344  m  1  1  1  v  0.000173677871675  -0.00015297908933  4.04723111303e-05
0.0198578445889  6.65429821511  2.28968043549  m  1  1  1  v  -2.90767566787e-05  0.00012410756341  -0.000395657134557
-0.0137369892052  6.68755686455  6.73232378481  m  1  1  1  v  -4.76559742739e-05  -0.000403505229511  0.000215527878448
4.40451700541  2.21307752409  2.26946057038  m  1  1  1  v  -0.000142488945333  -0.000121744618066  2.61480602472e-05
4.35815651862  2.22042139774  6.65569290722  m  1  1  1  v  -0.000170443267917  -6.85357759428e-05  -0.000276852888896
4.39604972159  6.64052646081  2.2483834471  m  1  1  1  v  -0.000416545028735  6.27207440064e-05  4.15000112909e-05
4.35563798759  6.66966272158  6.67646501962  m  1  1  1  v  0.000363150264475  -0.000208700395469  0.000208476863471
2.19643011802  0.0197208912265  2.25435203111  m  1  1  1  v  0.000152103982114  0.000484907276697  0.000364951901941
2.15405487587  0.0775887278953  6.65935760675  m  1  1  1  v  -0.000248641850075  0.000197745332685  -0.000213135221733
2.17959921901  4.44852062694  2.26903979305  m  1  1  1  v  -0.000243345245095  3.65900722014e-05  0.000172824807683
2.15394951142  4.46896690794  6.63899643499  m  1  1  1  v  1.32052308328e-05  0.000203805808975  -0.000411019429036
6.644277106  0.0538941113876  2.2843308089  m  1  1  1  v  7.45191883206e-05  0.000314705803241  0.000191275050947
6.60987236391  0.0473843807538  6.69564809146  m  1  1  1  v  0.000193457694321  -0.000183838419943  -0.000159758437239
6.64532573257  4.44770261949  2.28162965701  m  1  1  1  v  -6.0127305456e-05  7.96392574051e-05  0.000189202160352
6.55896412851  4.47589995081  6.71649685007  m  1  1  1  v  2.1494235793e-05  -0.000112135639842  0.000108507279665
2.0476275005  2.2578212214  8.99284450348  m  1  1  1  v  -0.000286691502386  -2.6262304922e-05  -0.000356594426357
2.20005455567  2.22222268057  4.44857040694  m  1  1  1  v  0.000203780282855  -0.000149539123166  -2.3250818486e-05
2.03048282856  6.68683397842  8.96788018427  m  1  1  1  v  -6.25269363681e-05  -4.46021831772e-05  -0.000176080524682
2.1631703919  6.65883250303  4.43809803843  m  1  1  1  v  -0.000190816759696  0.000217300800963  -5.69695771964e-06
6.64200331852  2.22275634532  0.0618405081133  m  1  1  1  v  0.000108789445084  -2.70768472399e-05  -3.67449768564e-05
6.59754162947  2.2397282178  4.49084070197  m  1  1  1  v  -0.000209825708141  -5.06995141617e-06  0.000253037200685
6.62495667817  6.66148320858  0.0490740859333  m  1  1  1  v  -0.00013298374064  6.20293042342e-05  -5.76577145371e-05
6.60858051039  6.66837519215  4.49492937741  m  1  1  1  v  2.93504364437e-05  0.000262137182293  -0.000285028848059
