ATOMIC_SPECIES
Si 28.085 Si_ONCV_PBE-1.0.upf
C 12.011 C_ONCV_PBE-1.0.upf

LATTICE_CONSTANT
1.8897261254578281

LATTICE_VECTORS
8.944543786847293 0.0 0.0 
-0.18770924541615958 8.686629064241242 0.0 
0.1170749664106831 0.1724917686476029 8.692130464646466 

ATOMIC_POSITIONS
Cartesian    # Cartesian(Unit is LATTICE_CONSTANT)
Si
0.0
32
3.313343573000 1.159881452735 3.262513519268 1 1 1
3.327349071450 1.218003085047 7.636562068113 1 1 1
3.249404743370 5.561962315031 3.213661102113 1 1 1
3.295571259450 5.610765380120 7.611487980501 1 1 1
7.694874594540 1.207126240991 3.230362137976 1 1 1
7.726747124369 1.270269258367 7.641843048590 1 1 1
7.631223819628 5.603348421064 3.207477851978 1 1 1
7.687428610030 5.635617479217 7.550501654839 1 1 1
3.271747325801 3.334541528412 1.063564201910 1 1 1
3.289986806038 3.394858416662 5.445417600578 1 1 1
3.232048909956 7.743329802022 1.001667652552 1 1 1
3.255669224253 7.785974868913 5.373085956622 1 1 1
7.648491347219 3.397821999480 0.992691749691 1 1 1
7.681627970400 3.411002134881 5.412024385163 1 1 1
7.597772811624 7.775202586860 0.983345609244 1 1 1
7.646812534314 7.819995307585 5.381902521529 1 1 1
1.093642837319 1.126014224055 1.074985580328 1 1 1
1.129872936267 1.173557871878 5.472208078233 1 1 1
1.056033284811 5.519498876244 1.038838115150 1 1 1
1.092178267800 5.538703553102 5.434300431494 1 1 1
5.464851031665 1.164705316417 1.057170139166 1 1 1
5.523384892432 1.213324451265 5.431908964821 1 1 1
5.417136509505 5.546213841691 0.992243023780 1 1 1
5.486742841079 5.634619778028 5.395968176734 1 1 1
1.080338953271 3.339204053238 3.247077407397 1 1 1
1.122477557183 3.399777860458 7.648802981372 1 1 1
1.040325378428 7.730189030231 3.199807891981 1 1 1
1.084837513035 7.773800885758 7.603432107680 1 1 1
5.474254173604 3.370616978219 3.221812797378 1 1 1
5.500894046959 3.421749427466 7.604994682320 1 1 1
5.428553596401 7.776122845612 3.175748200868 1 1 1
5.445986718167 7.811879781610 7.571874873062 1 1 1
C
0.0
32
8.797917245017 0.114191150197 -0.058936398224 1 1 1
8.812874589957 0.144425138979 4.325581848426 1 1 1
8.752646912714 4.487567897617 -0.089361903635 1 1 1
8.772562296475 4.544162473981 4.284072945543 1 1 1
4.401693847105 0.047494601066 -0.039079375160 1 1 1
4.432581046397 0.095962406587 4.367000185784 1 1 1
4.359740864487 4.438322031853 -0.069308494889 1 1 1
4.378630729444 4.469230549099 4.334912909122 1 1 1
8.777526730956 2.310783657602 2.123601236717 1 1 1
8.807236525384 2.357136714415 6.510967578431 1 1 1
8.705295379751 6.681581673727 2.063963841502 1 1 1
8.768943653005 6.749027528054 6.447072748316 1 1 1
4.367600581041 2.246272074595 2.136801636801 1 1 1
4.429863902550 2.311408145583 6.518025437407 1 1 1
4.349071971842 6.653402184032 2.103327848829 1 1 1
4.347696680129 6.708927141055 6.500945341338 1 1 1
2.225200697383 0.044818044809 2.196418778392 1 1 1
2.222077337894 0.099866574555 6.579226124090 1 1 1
2.151270707305 4.426705561819 2.143806150675 1 1 1
2.201095623710 4.480042337780 6.524223850941 1 1 1
6.607206779940 0.101267754725 2.145587082911 1 1 1
6.625856848060 0.136824788991 6.539590021403 1 1 1
6.544539438729 4.468370797007 2.095142747520 1 1 1
6.583659918376 4.504873792833 6.505542329885 1 1 1
2.158365006055 2.223278632316 -0.045533800331 1 1 1
2.202689393399 2.267801294547 4.355385824872 1 1 1
2.138764725927 6.603660772746 -0.082507411555 1 1 1
2.159418417691 6.645510384583 4.291780006148 1 1 1
6.564517376171 2.254407852332 -0.070997323535 1 1 1
6.590592733115 2.301988998935 4.327369030440 1 1 1
6.529205555953 6.655413902159 -0.100165474460 1 1 1
6.550724972240 6.708596239618 4.288697468466 1 1 1

NUMERICAL_ORBITAL
Si_gga_9au_100Ry_3s3p2d.orb
C_gga_9au_100Ry_3s3p2d.orb
