ATOMIC_SPECIES
Si 28.085 Si_ONCV_PBE-1.0.upf upf201
C 12.011 C_ONCV_PBE-1.0.upf upf201

NUMERICAL_ORBITAL
Si_gga_9au_100Ry_3s3p2d.orb
C_gga_9au_100Ry_3s3p2d.orb

LATTICE_CONSTANT
1.88972612546

LATTICE_VECTORS
8.8316298905 0 0 #latvec1
-0.173417838154 8.69964909749 0 #latvec2
-0.0507414301195 0.0098001522163 8.63559292896 #latvec3

ATOMIC_POSITIONS
Cartesian

Si #label
0 #magnetism
32 #number of atoms
3.30667523704  1.1620648379  3.35365988923  m  1  1  1  v  -0.000156076060476  -4.41230987638e-05  0.000120759545489
3.28065321546  1.15191956017  7.76349581105  m  1  1  1  v  -3.28827922174e-05  7.05449489991e-05  -0.000256187655801
3.27498559395  5.56449066526  3.33364511696  m  1  1  1  v  0.000235654261522  -2.28874515725e-05  -0.000234961947891
3.21696711714  5.59731385291  7.75013610467  m  1  1  1  v  -0.000189905737184  -6.19600218479e-05  -3.9566621512e-05
7.73610644639  1.2030948059  3.33492334315  m  1  1  1  v  7.37881251988e-06  6.96679396251e-05  -5.31007769606e-05
7.7375907481  1.18035277023  7.76898878994  m  1  1  1  v  0.000142314954978  -0.000225513610683  1.14847352463e-05
7.68923022407  5.61021149369  3.34261825898  m  1  1  1  v  0.000144437583968  -0.000166967255505  -0.000171838766924
7.6884526129  5.64927327414  7.74993204135  m  1  1  1  v  0.000136202676167  0.000146546291515  -0.0001168885293
3.28108708012  3.35546342981  1.12378934701  m  1  1  1  v  -0.000239329328031  0.000205787619738  0.000162337904157
3.26543725283  3.38923344372  5.55216820637  m  1  1  1  v  5.32518347526e-05  -0.000160675378627  0.000168889337803
3.22746440984  7.789010003  1.13056212555  m  1  1  1  v  0.000127761341425  -2.63380282387e-05  -0.00017836289956
3.24749113443  7.78110373332  5.57111466966  m  1  1  1  v  -9.26215599189e-05  -4.20043719912e-05  0.000180874149196
7.7139922892  3.40895464387  1.1247724991  m  1  1  1  v  6.06712468165e-05  -0.000101495609069  -0.000160579810283
7.71781445241  3.40161064005  5.56834947924  m  1  1  1  v  0.000141292838073  3.58347676373e-05  8.45234682412e-05
7.68808903609  7.80408491759  1.13726379507  m  1  1  1  v  -0.000176824516637  -0.000317311580119  0.000161871293302
7.68052864103  7.83436592926  5.57495435949  m  1  1  1  v  8.8205461005e-05  0.000153378009231  -0.000112691967823
1.11369732724  1.14512998364  1.12064695061  m  1  1  1  v  0.000163906856953  2.69138257827e-05  7.12376243789e-05
1.04997506066  1.1570749678  5.5508091179  m  1  1  1  v  1.08779586183e-05  0.000170216903222  -0.000129302969351
1.04056757254  5.54328699965  1.11972201524  m  1  1  1  v  -7.94459948519e-05  -6.68361596261e-05  9.44249078926e-05
1.03461639034  5.56290876542  5.52848517367  m  1  1  1  v  5.90424222893e-05  -2.70393651368e-05  -7.56124504905e-05
5.55513976468  1.17193530781  1.13285012091  m  1  1  1  v  -0.000117601577802  0.000108692402209  0.000267607597352
5.52943511709  1.16515702725  5.53963919789  m  1  1  1  v  1.426318976e-05  5.08712949903e-05  -8.24055899415e-05
5.48090206747  5.58265783014  1.12252601809  m  1  1  1  v  0.000203771840245  9.55447950342e-05  -0.000177800156757
5.47590260582  5.61430128212  5.57112056024  m  1  1  1  v  1.53387618049e-05  -8.75581667137e-05  0.000156779807129
1.06566476165  3.3552920814  3.33330737368  m  1  1  1  v  -0.00020913556008  8.771100149e-05  0.000214851875252
1.05191714528  3.34233291984  7.76121956358  m  1  1  1  v  -8.97097980975e-05  -0.000118351815849  1.94289652229e-05
1.00854346541  7.78366760502  3.31067220372  m  1  1  1  v  -0.000195039651874  -1.08132495943e-05  0.000103566781314
1.02533178285  7.78092250954  7.74250615902  m  1  1  1  v  0.000169175259425  -1.77557862333e-05  -0.000146975560455
5.49038859355  3.3676093545  3.34754797899  m  1  1  1  v  5.06835453105e-05  -9.78651149211e-05  0.000127465115673
5.48458678365  3.3863713947  7.74059029087  m  1  1  1  v  -0.000221615071754  -4.75240346578e-05  4.72577168409e-05
5.44542369418  7.81448213312  3.33942547984  m  1  1  1  v  1.64331030542e-05  0.000125523270384  0.000191690410799
5.44867790433  7.81818293719  7.75516166907  m  1  1  1  v  -6.89817888372e-05  -0.000172273763014  -0.000147205557985

C #label
0 #magnetism
32 #number of atoms
0.0752866064723  0.106885488701  0.0295976988233  m  1  1  1  v  -0.000212083940373  9.80455872317e-05  4.22701430918e-05
0.0453168151778  0.121186704511  4.44320319841  m  1  1  1  v  -1.865574673e-05  0.000144123852074  -0.000200682972794
-0.0279029033599  4.51664148271  0.0474608133255  m  1  1  1  v  -0.000252311692079  0.000232910345931  3.49390967292e-05
0.00167070226683  4.50782932872  4.46055734694  m  1  1  1  v  -8.07269049529e-06  0.000119670900149  0.000227754136012
4.43211159493  0.0760997400959  0.048931819542  m  1  1  1  v  0.00020704689513  0.000406812815353  0.000341782695207
4.43485184306  0.0676605139843  4.44796078693  m  1  1  1  v  0.000274107460139  0.000195191822599  0.000231315040702
4.36441113615  4.49251596997  0.0284088485796  m  1  1  1  v  0.000108503516334  -0.000330317072008  0.000200632597014
4.37455176189  4.47717268336  4.42856401794  m  1  1  1  v  -0.000219236666822  -0.000112847604119  3.18560897203e-05
-0.00415221472484  2.31922398463  2.24868964713  m  1  1  1  v  -0.00010950620905  -0.000116155948018  0.000227659154505
-0.0323536633431  2.29705799824  6.66868976846  m  1  1  1  v  0.000183090132488  -0.000160277793919  2.77929382736e-05
-0.0191634840165  6.72552971299  2.24635236365  m  1  1  1  v  -3.01181713704e-05  9.8921213309e-05  -0.000400594343081
-0.0286680115323  6.74787090342  6.68082843636  m  1  1  1  v  -5.04057409959e-05  -0.000421360459186  0.000204935987207
4.39096605909  2.24980591712  2.22675777326  m  1  1  1  v  -0.000132667008055  -0.000122695294508  3.31096551129e-05
4.38160341238  2.25219710112  6.62380613395  m  1  1  1  v  -0.000170575699792  -6.88565136292e-05  -0.000296524974046
4.35979686958  6.67193603385  2.21677705261  m  1  1  1  v  -0.000423758935146  6.53961502993e-05  4.83776907551e-05
4.34989866226  6.70160570407  6.64235160036  m  1  1  1  v  0.000359605626568  -0.000211808979334  0.000196760257025
2.2182974851  0.0271603122894  2.23678303943  m  1  1  1  v  0.000176800458814  0.000477670119423  0.000345613674209
2.19428119472  0.0873559878523  6.63871385855  m  1  1  1  v  -0.000215880542381  0.000184672390822  -0.000253696353912
2.16115212659  4.46023906963  2.26304127993  m  1  1  1  v  -0.00024130511787  3.88344609987e-05  0.000162222118055
2.16310777368  4.47409335437  6.62142893737  m  1  1  1  v  6.10299713891e-06  0.00021651705776  -0.000427076356016
6.66950925019  0.105943034795  2.24210358517  m  1  1  1  v  0.000100462042838  0.000288814757535  0.000168271453968
6.66558413574  0.0864775335852  6.63506265535  m  1  1  1  v  0.000218225944501  -0.000197301458308  -0.000182891632682
6.63141848844  4.50090115976  2.24285425281  m  1  1  1  v  -7.01466526751e-05  7.35599421011e-05  0.000188872612764
6.57481940154  4.51739267217  6.67041028141  m  1  1  1  v  1.94095882205e-05  -0.000108773764284  9.38246952381e-05
2.1935096971  2.24113057031  0.0142205244392  m  1  1  1  v  -0.00029421291535  -2.09407081183e-05  -0.000221412045692
2.20974883532  2.23802452168  4.42935094384  m  1  1  1  v  0.000205346796546  -0.000143437856922  -2.58009048149e-05
2.09381024089  6.67856248041  8.63055577049  m  1  1  1  v  -7.91171647382e-05  -3.67330070284e-05  -3.10337775942e-05
2.1392675415  6.66425552533  4.43378873555  m  1  1  1  v  -0.000194949218124  0.000224537056017  -1.97079916335e-05
6.62292677764  2.27244304283  0.0493176414096  m  1  1  1  v  0.000107755615458  -2.70480103888e-05  9.2771773057e-05
6.60887371424  2.28410076348  4.45134246999  m  1  1  1  v  -0.000207189741828  -4.22479751993e-06  0.000240427144667
6.56571264755  6.71273515872  0.0513709055235  m  1  1  1  v  -0.000130019411828  4.86197408345e-05  7.47884358058e-05
6.5789769731  6.71638796121  4.44951642022  m  1  1  1  v  2.93834431988e-05  0.000263007049721  -0.000285092080889
