ATOMIC_SPECIES
Si 28.085 Si_ONCV_PBE-1.0.upf upf201
C 12.011 C_ONCV_PBE-1.0.upf upf201

NUMERICAL_ORBITAL
Si_gga_9au_100Ry_3s3p2d.orb
C_gga_9au_100Ry_3s3p2d.orb

LATTICE_CONSTANT
1.88972612546

LATTICE_VECTORS
9.41178475926 0 0 #latvec1
-4.78499110424 7.76261294667 0 #latvec2
-0.183512028827 0.028995900235 10.0678851835 #latvec3

ATOMIC_POSITIONS
Cartesian

Si #label
0 #magnetism
36 #number of atoms
-0.0399534096794  1.7859530859  2.51061301212  m  1  1  1  v  7.58987231759e-05  0.000276187747594  -0.000160385581496
3.0256067438  7.09713468421  2.53292843553  m  1  1  1  v  0.000263502256719  8.99094473447e-05  -0.000241589580987
-3.13724836041  7.05574192547  2.47167592826  m  1  1  1  v  0.000133412415895  -5.31064265675e-05  0.000149700948324
4.51900417394  6.22413800724  5.06344522264  m  1  1  1  v  -6.0147165233e-05  2.22824879836e-06  -2.35440868897e-05
1.47318812675  0.915043052475  5.04460316388  m  1  1  1  v  -5.98696131552e-05  1.97538540411e-05  0.000104105310713
7.61539629749  0.961626768036  5.10880608469  m  1  1  1  v  -7.64439649668e-05  6.63539257122e-05  2.15287353234e-05
-0.0849190373295  1.77924089893  7.55602878447  m  1  1  1  v  0.0002444903444  -2.19789322922e-05  8.51153625747e-05
2.95274639875  7.11268976023  7.56860516099  m  1  1  1  v  -5.35794300391e-05  -0.000333073188332  -2.76506594216e-05
-3.1806236863  7.08129213179  7.53053535123  m  1  1  1  v  -0.000130286231927  9.18871936067e-05  0.000255672241537
4.65008929902  6.21949134209  0.0486028511245  m  1  1  1  v  -0.000186249304692  -0.000165063599639  9.69103801015e-05
1.60298990524  0.881324873947  0.0154018400692  m  1  1  1  v  -7.38275642749e-05  0.000309819700099  5.57037808025e-05
7.77391711884  0.924418850888  0.0617302765161  m  1  1  1  v  0.00010141911159  0.00024514129743  -0.000141622241031
-1.59777516431  4.42257104351  2.50677209524  m  1  1  1  v  0.000146155150661  1.95369516915e-05  0.000177247854992
1.49090664926  4.45163111664  2.52567978417  m  1  1  1  v  -3.90430854839e-05  -6.40839217296e-05  0.000165033899153
-0.0627965454223  7.07649241514  2.48842032891  m  1  1  1  v  -6.29343845681e-05  0.000158670987009  0.000184931179235
6.08182327529  3.57682076097  5.09447041609  m  1  1  1  v  7.07313396402e-05  -0.000218546912136  -0.000139170838112
3.00327517165  3.5684252858  5.05397425125  m  1  1  1  v  -0.000236687172005  5.05841718271e-05  -0.00015769066615
4.541672945  0.922700477267  5.0792057011  m  1  1  1  v  -0.000155521844074  1.29554078968e-05  -0.000115657420805
-1.64533644551  4.43712202318  7.53508883143  m  1  1  1  v  -0.000207864506105  0.000186723813768  2.7275773162e-05
1.45438954962  4.457234273  7.5592839118  m  1  1  1  v  5.27537283792e-05  -2.71355544669e-05  0.000195716165098
-0.0993508238764  7.10378148062  7.55030560734  m  1  1  1  v  0.000152081334676  0.000178114301326  0.000151697903284
6.21071027793  3.55453271862  0.0473486915191  m  1  1  1  v  -9.57554383613e-05  -2.61182010388e-06  1.02545023024e-05
3.15116830177  3.54104928336  0.0337364944257  m  1  1  1  v  6.13210635565e-05  -0.000170189424443  3.36675913458e-05
4.70068375865  0.911093428593  0.0402164524171  m  1  1  1  v  -8.88001980837e-05  0.00014643109778  -5.66599437089e-06
3.03022081268  1.80249128643  2.54656847249  m  1  1  1  v  9.87753252607e-05  -0.000267699513857  0.000207206351662
6.09002443399  1.81857302424  2.57175718677  m  1  1  1  v  0.000264055223304  0.000116644886609  -2.27352527815e-05
4.54892819801  4.46155899877  2.55017486465  m  1  1  1  v  0.000141747699398  0.000186592106148  2.54470230429e-05
1.47065304858  6.22006168598  5.03294436795  m  1  1  1  v  -4.13448961523e-05  2.15997696143e-05  -2.33147703139e-06
-1.60838858823  6.19443926027  5.00553693003  m  1  1  1  v  0.000169558485237  0.000152015534874  -0.000142747398798
-0.0587924183874  3.55785925903  5.02376897745  m  1  1  1  v  -0.000131528403266  0.000213627578981  -0.000161425508649
2.97715272734  1.79308850424  7.57721624312  m  1  1  1  v  -0.000247304242049  6.27397982441e-05  8.1304210276e-05
6.07188618357  1.82362981839  7.60046890045  m  1  1  1  v  0.000214071584791  -4.4710031472e-05  6.18496325331e-05
4.51537087563  4.47019974208  7.59296466746  m  1  1  1  v  -9.74190663631e-05  1.10525542925e-06  0.000211789586942
1.60273114454  6.18410307945  0.00267340034919  m  1  1  1  v  -5.59615842476e-05  -8.77760272568e-05  5.95314943262e-06
-1.65974769174  6.21261449002  10.0439743734  m  1  1  1  v  -6.2469705559e-05  -1.40766168536e-05  5.89277667001e-05
-0.103411570267  3.55798266124  10.0597044682  m  1  1  1  v  0.000134307316205  -7.01831543941e-05  -0.000173986209632

C #label
0 #magnetism
36 #number of atoms
-0.0737519409266  1.79072255051  4.41633688785  m  1  1  1  v  0.000171175562925  7.25125605205e-05  3.69801248856e-05
2.98569996068  7.07301829413  4.39613069727  m  1  1  1  v  0.000241315614706  -6.65332588372e-06  -0.000420025417593
-3.15965708879  7.0755953175  4.37058863359  m  1  1  1  v  -0.00032592525497  0.000192563199089  0.000317798203016
4.54443001964  6.22588209806  6.94120913916  m  1  1  1  v  9.13013914347e-06  -0.00037425659358  0.000169562875027
1.46556101833  0.934271902437  6.91632277794  m  1  1  1  v  -0.000246640045913  -0.000189756140587  -0.000299839025354
7.62104643695  0.962196761761  6.9613148329  m  1  1  1  v  -8.23989448026e-05  -0.00033694794222  0.000113729982043
-0.13245869065  1.77169231837  9.45877914543  m  1  1  1  v  -3.85698177606e-05  -9.56569094052e-05  0.00015153641825
2.94324457958  7.09502244581  9.44023820892  m  1  1  1  v  -0.00018044619285  0.000258228760689  1.13236256447e-05
-3.18935855052  7.06997211849  9.41787505847  m  1  1  1  v  0.00026497881408  0.00013406179619  3.25964027661e-05
4.57667528131  6.20917594661  1.92758714433  m  1  1  1  v  -6.09187629024e-05  -2.42283273561e-05  0.000427168609685
1.50797456921  0.932281314924  1.9011399512  m  1  1  1  v  0.000156726829986  0.000225737374618  -3.39689213632e-05
7.66108291932  0.972384645392  1.96786827074  m  1  1  1  v  0.000232658610692  -3.29359260624e-05  -3.3908534951e-06
-1.62904933613  4.4063063392  4.38719221516  m  1  1  1  v  -0.000289196747316  -0.000401027144678  -0.00011732227616
1.45988729307  4.47735146525  4.38502218002  m  1  1  1  v  -0.00042958876249  7.73897059894e-05  -9.87113057435e-06
-0.0732151166131  7.07963974907  4.40149674199  m  1  1  1  v  0.000203203656615  -0.000217863618391  -0.000346971970797
6.06876962142  3.61356362186  6.98142365375  m  1  1  1  v  -3.51754330151e-05  0.000238552720262  -0.000274901430363
2.97295565799  3.55144893581  6.93712652257  m  1  1  1  v  8.36286711022e-05  -0.000255351148735  0.000138252791454
4.53934374481  0.942957263033  6.93577638268  m  1  1  1  v  0.000201859721891  0.000159874692814  -5.99001587394e-05
-1.67763696786  4.41861541415  9.43016813909  m  1  1  1  v  -0.000317530144823  -0.000129399257523  -0.000298295823774
1.43307693687  4.46323129178  9.43736515765  m  1  1  1  v  0.000247314740279  0.000268367444938  0.00015479235501
-0.120475726121  7.06807596271  9.44592254928  m  1  1  1  v  0.000170985360215  -0.000130140497663  0.000277424576559
6.12208971272  3.58670793877  1.9354735482  m  1  1  1  v  0.000226135959348  0.000102478320694  -0.000326160046138
3.04963729547  3.55376463065  1.89897179028  m  1  1  1  v  0.000229120251297  -0.000150388811465  -0.00020992722771
4.59886239112  0.931640164019  1.93409326391  m  1  1  1  v  6.73897644979e-05  8.85587873466e-06  -0.00016781276219
3.02821216474  1.81552961511  4.43046305676  m  1  1  1  v  2.77911427438e-05  0.000112325315273  -0.000250206780335
6.10592330378  1.80202621855  4.45145835734  m  1  1  1  v  0.000202707471949  6.52023110201e-05  1.7200625453e-05
4.56645292109  4.47733385025  4.4322745081  m  1  1  1  v  -5.8719465593e-05  7.65767958434e-05  -0.000263128851468
1.45215485006  6.21094200061  6.96327422267  m  1  1  1  v  6.25856658058e-05  -0.000216766155387  0.000254457702114
-1.64070720056  6.20583262957  6.91004246523  m  1  1  1  v  3.12377519876e-05  -1.6180237884e-05  0.000164553785481
-0.0727875719586  3.55515232918  6.91508896128  m  1  1  1  v  0.000201243051417  -0.00025810561362  -4.76699939594e-05
2.96026610781  1.81689443097  9.46795083307  m  1  1  1  v  -0.000128311523456  -8.45868062165e-05  -0.000131097825895
6.05103189879  1.8003347103  9.48431003717  m  1  1  1  v  0.000160469467734  -0.000366281023918  -2.70808011862e-05
4.49998706284  4.46744867953  9.47999023319  m  1  1  1  v  -0.000165890286689  -0.000162053778984  0.000314229495834
1.49006926377  6.1962602431  1.90136391896  m  1  1  1  v  0.000121057642459  -8.6704190928e-05  0.000200009922473
-1.57776140225  6.16553422221  1.89184207969  m  1  1  1  v  -2.905367877e-05  -5.1675304577e-05  0.000300562082006
-0.0332777028351  3.55178613926  1.86619721243  m  1  1  1  v  -0.000262365338327  0.000158606368909  -0.000125802868519
