ATOMIC_SPECIES
Si 28.085 Si_ONCV_PBE-1.0.upf upf201
C 12.011 C_ONCV_PBE-1.0.upf upf201

NUMERICAL_ORBITAL
Si_gga_9au_100Ry_3s3p2d.orb
C_gga_9au_100Ry_3s3p2d.orb

LATTICE_CONSTANT
1.88972612546

LATTICE_VECTORS
9.41178475926 0 0 #latvec1
-4.78499110424 7.76261294667 0 #latvec2
-0.183512028827 0.028995900235 10.0678851835 #latvec3

ATOMIC_POSITIONS
Cartesian

Si #label
0 #magnetism
36 #number of atoms
-0.0383616128852  1.7703527825  2.50894653511  m  1  1  1  v  2.08222112447e-05  -5.34848695057e-06  1.34555746122e-05
3.01436766815  7.11188058042  2.53133958287  m  1  1  1  v  8.80550339023e-06  -1.47003972316e-05  2.75078094137e-05
-3.12439413284  7.07566104284  2.47183372495  m  1  1  1  v  -5.13704579227e-05  1.41017324051e-05  -1.22500325592e-05
4.52814275216  6.23154302656  5.06433407466  m  1  1  1  v  5.06210832341e-05  -5.44693153308e-05  3.69179263889e-06
1.48525593791  0.899403482389  5.04263920991  m  1  1  1  v  1.45510166814e-05  3.88272604189e-05  -2.83786180457e-05
7.62002442137  0.933307893997  5.10108032173  m  1  1  1  v  3.19016495298e-07  -5.67690194237e-06  5.60940028368e-06
-0.0738567193684  1.78197913976  7.55067523613  m  1  1  1  v  -3.59402677604e-05  -4.7374172969e-06  -8.39284815119e-07
2.96253595276  7.11548480532  7.5717723212  m  1  1  1  v  2.41853717426e-05  2.49994627707e-05  -4.10585253683e-05
-3.17505784542  7.08452624232  7.51468855225  m  1  1  1  v  4.91735204922e-05  1.34704857126e-05  -2.21277793633e-06
4.66520886595  6.21631298039  0.0409692787738  m  1  1  1  v  4.51656259477e-06  -1.56630651859e-05  2.29569199702e-05
1.62015285435  0.874838592728  0.015131653694  m  1  1  1  v  -3.60673516164e-06  4.31457733531e-05  -7.86229155721e-06
7.75909372365  0.910585628612  0.0679580572791  m  1  1  1  v  1.52729539727e-05  -3.04159189209e-05  -2.5113218204e-05
-1.57970412936  4.42537867611  2.49483881654  m  1  1  1  v  -6.1575338024e-06  -1.85475888336e-05  -2.91298305641e-05
1.48740126421  4.44342024914  2.52114953519  m  1  1  1  v  6.82219232602e-06  2.35216016119e-05  -9.81867343464e-06
-0.0535311851727  7.09015273404  2.50541453123  m  1  1  1  v  -9.31283028812e-06  -1.4861185074e-05  -4.55236308994e-05
6.07421028936  3.58275799548  5.09042211837  m  1  1  1  v  -1.31307426207e-07  -1.28883568417e-05  3.20378699329e-05
3.00496143313  3.57400865234  5.06187785725  m  1  1  1  v  -3.57207413218e-06  5.65397935133e-05  -1.06519198904e-06
4.54911892841  0.91219883063  5.06767830044  m  1  1  1  v  -2.18821980159e-05  7.66364199516e-07  1.65814596405e-05
-1.62863559869  4.42971685289  7.52325683569  m  1  1  1  v  6.00738108406e-07  7.63174208248e-06  -2.47717324543e-05
1.44602623521  4.44843226475  7.55712548435  m  1  1  1  v  1.7587874155e-05  3.70421200359e-05  -3.70673936403e-05
-0.0986649927757  7.09477222595  7.54371478928  m  1  1  1  v  5.3533948387e-06  -1.94670914353e-05  -6.11241697166e-06
6.21331055141  3.55956471848  0.0520772551808  m  1  1  1  v  1.8244697657e-05  2.82925424105e-05  -1.48488975351e-05
3.1444708031  3.54534978927  0.0230589682058  m  1  1  1  v  -1.37193485462e-05  1.24263692237e-05  -2.94349873755e-05
4.69104892057  0.895287055274  0.0427277504071  m  1  1  1  v  2.66233922009e-05  1.69441610939e-05  5.69915681345e-07
3.03037399711  1.78558849975  2.53720575105  m  1  1  1  v  2.58302585565e-06  2.65374634387e-05  -4.88169442525e-06
6.10254752497  1.80805329036  2.56387235324  m  1  1  1  v  1.23301498859e-05  -6.6101623716e-06  2.91507443929e-05
4.55628509026  4.45468383785  2.55150088069  m  1  1  1  v  -7.94985273518e-07  1.85029206306e-05  -4.40263366491e-06
1.45913688299  6.21649015625  5.03836668079  m  1  1  1  v  -4.57363578911e-05  5.29439844793e-05  -2.59179792814e-05
-1.60718686761  6.19908596271  5.00276853958  m  1  1  1  v  1.28455016267e-05  -3.38609726261e-05  2.37431330036e-05
-0.0675896449737  3.5553490692  5.02786093058  m  1  1  1  v  -2.49032512124e-05  -3.9395597677e-06  -4.0296572377e-05
2.99016311924  1.79592528169  7.57314070401  m  1  1  1  v  -2.88074898566e-05  -1.177375606e-05  3.40952242417e-05
6.06937157605  1.80889767267  7.60335472736  m  1  1  1  v  -6.10086977136e-05  2.73674370865e-06  3.91217072301e-05
4.51197115585  4.46367014891  7.59244598428  m  1  1  1  v  3.16797747136e-05  -2.13812044224e-05  3.20890412082e-05
1.59674885835  6.19349189199  0.00615229897704  m  1  1  1  v  -2.54901981885e-05  -1.6014034434e-05  -2.73751988562e-05
-1.65119031622  6.21318492434  10.049299011  m  1  1  1  v  5.05569824879e-06  -3.46447231809e-05  -1.99980436516e-05
-0.110196270587  3.55814059335  10.0650818689  m  1  1  1  v  4.44762661357e-06  -5.48247991553e-06  4.95554440045e-06

C #label
0 #magnetism
36 #number of atoms
-0.0476662607399  1.77755001466  4.40503713378  m  1  1  1  v  -3.45923957259e-05  2.31947392564e-05  -2.78639326482e-05
2.99956574025  7.1124329697  4.42927146181  m  1  1  1  v  -6.29539355816e-06  -2.27555423688e-05  -2.3092418558e-05
-3.14088766552  7.0818571958  4.3675774258  m  1  1  1  v  2.49761263203e-05  2.88595732134e-05  9.06693765834e-07
4.51096380854  6.23540332312  6.95692819037  m  1  1  1  v  1.28495588891e-06  3.02695879223e-05  4.78883536891e-05
1.46746710912  0.901033799105  6.93679659455  m  1  1  1  v  -6.00497084141e-06  -2.85653333107e-05  -8.24729123228e-06
7.60419785471  0.935940713438  6.99625251664  m  1  1  1  v  4.3819650622e-05  2.05454783474e-05  5.7519950912e-05
-0.0959180652792  1.78842383935  9.44833056416  m  1  1  1  v  6.4663973941e-06  -4.42216575238e-05  -4.57011079404e-05
2.94429612836  7.11173669195  9.45943879019  m  1  1  1  v  -2.15743502958e-05  -7.66476759401e-05  2.7788686913e-05
-3.18616080772  7.08348344645  9.41044164321  m  1  1  1  v  7.94339240274e-05  -4.84710844697e-05  9.5541151639e-06
4.55326889684  6.22778694915  1.92845882837  m  1  1  1  v  -3.2330166362e-05  1.09733071286e-05  6.07247172409e-05
1.5092101316  0.900535352121  1.90376819938  m  1  1  1  v  4.08331703428e-07  4.2447731878e-05  5.07380830409e-05
7.65664412958  0.931857698304  1.9646604424  m  1  1  1  v  1.99204204328e-05  6.17470375692e-06  3.61194500694e-07
-1.59437565699  4.4249463237  4.391326395  m  1  1  1  v  7.41341011426e-05  2.11513898427e-06  -1.56532505777e-05
1.47583909416  4.44625506698  4.41437479802  m  1  1  1  v  5.82099065719e-06  3.25707082865e-05  -5.10475635618e-05
-0.0687616526889  7.09017141671  4.39287221664  m  1  1  1  v  1.64812962036e-05  -4.67928482166e-05  4.29393618875e-05
6.05829804755  3.5844917339  6.97708889428  m  1  1  1  v  -4.86064611245e-05  -2.46948308442e-05  -4.62065171308e-05
2.98336688608  3.57380537191  6.94474036503  m  1  1  1  v  -3.26664090176e-05  1.13089011225e-05  -4.85603418362e-05
4.54260704581  0.913301820916  6.96826259393  m  1  1  1  v  1.78975427945e-05  3.88426838035e-06  1.68082798518e-05
-1.64244577284  4.43565198421  9.4237659594  m  1  1  1  v  -7.5791436763e-05  1.77636280098e-05  1.11371367816e-05
1.43421036362  4.44490382263  9.45017242991  m  1  1  1  v  -3.07957605584e-05  -2.59671471023e-05  9.34355141043e-05
-0.1208680409  7.10130004855  9.43512287092  m  1  1  1  v  1.84011013175e-05  5.91290742065e-07  -1.9088776954e-05
6.10450289306  3.5753238764  1.94259607203  m  1  1  1  v  2.86626021822e-05  -6.24158857762e-05  3.97885790174e-05
3.03616155943  3.55985734883  1.91581228652  m  1  1  1  v  1.67668790751e-05  -1.5952689281e-05  7.71966184706e-05
4.58120678664  0.910780541002  1.93079530522  m  1  1  1  v  -1.52391268922e-05  -3.50497059733e-06  -7.72180734408e-05
3.01979453024  1.79368650745  4.43232584248  m  1  1  1  v  1.49619373817e-05  -3.02222885472e-05  2.47818291774e-06
6.08835175336  1.80660707872  4.46352102471  m  1  1  1  v  -2.4602340928e-05  -2.54120505301e-05  6.37272349724e-05
4.5490687973  4.45730063958  4.44918078807  m  1  1  1  v  4.75924329625e-05  4.70840044982e-05  -2.23257699486e-05
1.44068106407  6.22299810868  6.93560077286  m  1  1  1  v  -4.93671056398e-05  5.65543139957e-05  5.98335135065e-05
-1.6335506822  6.19825938933  6.89869893293  m  1  1  1  v  3.89978628582e-05  -3.1159385664e-05  2.32768776533e-05
-0.0800511818281  3.54942955301  6.91513736915  m  1  1  1  v  -3.89061135847e-05  2.41624980458e-05  7.0394117947e-06
2.9719210601  1.80316811493  9.4736777771  m  1  1  1  v  2.3461407892e-05  -4.56840597088e-05  6.14269478324e-07
6.0422313548  1.81696816786  9.49590736507  m  1  1  1  v  -4.13939429452e-05  -1.0535026747e-05  1.99978088189e-05
4.49637522332  4.46731799451  9.48038128837  m  1  1  1  v  3.34761223275e-06  -2.0306499026e-05  -3.42453865083e-05
1.48189250026  6.21235138792  1.90098879005  m  1  1  1  v  -1.90023527478e-05  6.25243107546e-05  6.97428300338e-05
-1.57962265827  6.19929261576  1.86811457227  m  1  1  1  v  3.04790471808e-05  -4.47570255169e-05  3.52521851059e-05
-0.0345829368228  3.54663921839  1.88572146095  m  1  1  1  v  -3.61640007638e-05  -1.8604412712e-05  -4.22262413575e-05
