ATOMIC_SPECIES
Si 28.085 Si_ONCV_PBE-1.0.upf upf201
C 12.011 C_ONCV_PBE-1.0.upf upf201

NUMERICAL_ORBITAL
Si_gga_9au_100Ry_3s3p2d.orb
C_gga_9au_100Ry_3s3p2d.orb

LATTICE_CONSTANT
1.88972612546

LATTICE_VECTORS
9.41178475926 0 0 #latvec1
-4.78499110424 7.76261294667 0 #latvec2
-0.183512028827 0.028995900235 10.0678851835 #latvec3

ATOMIC_POSITIONS
Cartesian

Si #label
0 #magnetism
36 #number of atoms
-0.0357644452014  1.76917930686  2.50963162032  m  1  1  1  v  -1.6153840661e-05  -1.68343903579e-05  -2.22983171414e-05
3.01290193427  7.10755003473  2.53645324034  m  1  1  1  v  3.48591294945e-05  -4.28222801498e-05  -1.3382571692e-06
-3.13194913516  7.06717148365  2.47515541898  m  1  1  1  v  -9.12708632361e-05  -9.36518056754e-05  0.000104645867507
4.53056468757  6.2340471362  5.06461080568  m  1  1  1  v  -5.71089714776e-05  6.42822601178e-05  8.77732797458e-05
1.4844774748  0.914221049361  5.04524627712  m  1  1  1  v  -8.59529969187e-05  6.95738574456e-05  -4.76495276972e-05
7.62222637193  0.945731372051  5.10015399557  m  1  1  1  v  -6.98146812234e-05  0.0002086268452  -8.31576194161e-05
-0.0800290199534  1.78100918559  7.55396509724  m  1  1  1  v  -1.10504239798e-05  3.48716995467e-05  4.22917058312e-05
2.95718454072  7.11368338401  7.56468120702  m  1  1  1  v  -8.68653714901e-05  7.59425105417e-06  -8.08047443475e-05
-3.17811898761  7.07943050901  7.51845080278  m  1  1  1  v  -0.000116834449153  -2.94380586843e-05  -2.32497475265e-05
4.66456763539  6.22138461847  0.0382136358333  m  1  1  1  v  -3.14849270737e-05  -6.62046313695e-05  -2.7742089853e-05
1.61343974243  0.874297718434  0.0184844890526  m  1  1  1  v  -0.000124995817903  3.12111574759e-06  -5.79358365471e-05
7.76227476882  0.910158411063  0.0649004212218  m  1  1  1  v  0.000100192933526  2.5208510381e-05  -3.73234535657e-05
-1.58394549252  4.4239815398  2.49698813982  m  1  1  1  v  -0.000187686113949  -0.000108169558306  0.000157480458017
1.49240327388  4.4488509296  2.51921145145  m  1  1  1  v  0.000141547488126  -0.000172184163032  -6.55381456888e-06
-0.0555923208966  7.08289970153  2.49965464712  m  1  1  1  v  6.64382062532e-06  -7.61147228268e-05  -0.000181491040614
6.08199864477  3.58344712711  5.09230530468  m  1  1  1  v  -9.63510967743e-06  0.00011591472816  0.000179818606547
3.00492037444  3.57198420774  5.06023903036  m  1  1  1  v  0.000120892327228  -0.000109426215213  -1.62065751416e-05
4.54448683261  0.922322444718  5.07323748881  m  1  1  1  v  -6.64814840215e-05  6.5020103341e-05  4.46075239473e-05
-1.63467919297  4.43455996696  7.52360166927  m  1  1  1  v  4.14650099693e-05  -8.50282290647e-05  7.16723405092e-05
1.44706502714  4.45236569779  7.55550757015  m  1  1  1  v  3.27533648789e-06  0.000102292500521  2.04740535718e-05
-0.101301121815  7.09518603323  7.5477170456  m  1  1  1  v  -3.17833407759e-05  0.000156942238154  -1.82730000833e-05
6.21721647779  3.56054418888  0.0462223063732  m  1  1  1  v  -5.46099977861e-05  6.85654183036e-05  -5.04637016214e-05
3.1452100974  3.54258316227  0.0257839931068  m  1  1  1  v  0.000112347419598  0.000127675211372  8.02249414551e-05
4.69220442195  0.902928271707  0.0360241833294  m  1  1  1  v  3.8399209929e-05  8.5062511044e-05  -6.96942962417e-05
3.03185506824  1.78776464345  2.53925472604  m  1  1  1  v  2.29545392129e-05  7.62541234954e-05  0.00013256456918
6.09699089444  1.81082326732  2.56445974672  m  1  1  1  v  -0.000160308583084  3.86475705694e-05  1.48593459147e-05
4.56019728702  4.44790036508  2.55628935015  m  1  1  1  v  1.38938523317e-05  -7.89165063497e-05  0.000127888737248
1.45860989953  6.2194200629  5.03326674838  m  1  1  1  v  6.86352536514e-06  6.14538687777e-05  -6.82771191529e-05
-1.60937877152  6.19474148783  5.01050687656  m  1  1  1  v  2.8674520741e-05  -0.000106965566704  7.52728144871e-05
-0.0635508700773  3.55363292106  5.02921505174  m  1  1  1  v  0.000106959188859  -0.000104019901649  -5.3575589024e-05
2.98581312359  1.79332700807  7.57653036299  m  1  1  1  v  -9.58329087891e-05  -0.000101581826993  0.000177030136458
6.07454663664  1.81600975534  7.59754115461  m  1  1  1  v  9.95963973285e-05  5.39543938569e-05  1.13214533665e-05
4.51118559345  4.46035413858  7.58418535738  m  1  1  1  v  6.73633278362e-05  -6.36679266898e-05  -9.43385918752e-05
1.59815841067  6.19846432441  0.00804899565244  m  1  1  1  v  -9.12014424607e-05  -5.95688363058e-05  -6.30998241753e-05
-1.6499483299  6.21125798966  10.0522250532  m  1  1  1  v  -0.000184260903887  -3.13597178252e-05  -1.55123600458e-05
0.0756828758316  3.53114745992  0.00141456627109  m  1  1  1  v  -6.13170331813e-05  3.97026797847e-05  1.79904570317e-05

C #label
0 #magnetism
36 #number of atoms
-0.0585208105484  1.78336545046  4.39952872788  m  1  1  1  v  -7.89914794437e-05  9.49294872732e-05  -4.8694713147e-05
2.99143793496  7.10015254233  4.42711517005  m  1  1  1  v  -0.000188085666426  3.78529547312e-06  -7.10033758328e-06
-3.15181032843  7.07296742872  4.36926023809  m  1  1  1  v  4.24490653998e-06  -0.000313135023957  0.000218069601487
4.52087734725  6.25061610683  6.94513904779  m  1  1  1  v  -0.000150779574951  -5.88987763253e-05  9.6182710043e-05
1.46716035238  0.913975710609  6.93657534046  m  1  1  1  v  8.7221630505e-05  0.000283281235413  -0.000163000675321
7.62310320491  0.955376805794  6.98147737928  m  1  1  1  v  4.82710333016e-05  0.000457681698763  -7.90331730929e-05
-0.119637847359  1.7804623526  9.44990370101  m  1  1  1  v  -0.000360867353323  6.45426231382e-05  -0.000143993810491
2.93373022975  7.08920691644  9.44574433638  m  1  1  1  v  -0.000115831470998  -0.000152599803251  -0.000226850704785
-3.1948865  7.07352535783  9.40967764529  m  1  1  1  v  7.68008171307e-05  -0.000103895105875  0.000114850073342
4.56774138551  6.22336358022  1.92650351291  m  1  1  1  v  0.000163244951567  -5.46219190062e-05  -0.000167050460021
1.50466615827  0.91778267642  1.89042912252  m  1  1  1  v  -0.000183669956321  -1.70368383946e-05  -9.74679461926e-05
7.67093876662  0.954086399884  1.9696825921  m  1  1  1  v  0.000125453605448  0.000168142303341  -4.44806990566e-05
-1.6101449001  4.43101896042  4.39740692157  m  1  1  1  v  7.2446051511e-05  6.05074449857e-05  -0.000154290386132
1.46270153519  4.45444105548  4.40993235908  m  1  1  1  v  -1.03002237069e-05  -9.46455787039e-05  -0.00019831553716
-0.0736507277205  7.07863652701  4.39571303682  m  1  1  1  v  4.00096833559e-05  -7.10783289903e-05  -5.3920408871e-05
6.05180317971  3.59565407142  6.98882980602  m  1  1  1  v  3.7852158831e-06  7.79114544331e-06  0.000259831296694
2.98456495252  3.57483171721  6.93701901163  m  1  1  1  v  -9.72942416301e-05  1.5773821392e-05  -3.330069934e-06
4.53675710897  0.933819595543  6.95611376544  m  1  1  1  v  9.16938464607e-05  0.000369583182905  -0.000147525039876
-1.64404873889  4.42171361067  9.43404335605  m  1  1  1  v  -0.000192981595822  2.55658037224e-05  0.000257852006594
1.42540955812  4.44899501046  9.44403481245  m  1  1  1  v  -9.66911138781e-06  -0.000200818526797  -0.00015272478714
-0.115451833962  7.09133855198  9.44362878793  m  1  1  1  v  0.000164358352276  -0.000141036509584  4.72119012777e-05
6.11788984822  3.58505124041  1.93826493674  m  1  1  1  v  0.000143227834521  1.77327854233e-05  0.000136725245732
3.03393197826  3.55818842235  1.91351120115  m  1  1  1  v  0.000137552105639  -0.000228413497502  -0.000136051681039
4.5890407236  0.918677287244  1.9226270786  m  1  1  1  v  0.000313774285802  0.000234231571884  7.87897620737e-05
3.0123807289  1.79945935289  4.42764720399  m  1  1  1  v  -0.000231923867178  0.000161438107801  0.00013063534882
6.08665701593  1.80101833119  4.45650430852  m  1  1  1  v  -0.000281438779344  -0.000234601928526  -0.000214955705768
4.54584300329  4.46499093479  4.433727249  m  1  1  1  v  1.90397767534e-06  -1.51040498636e-05  -0.00016931841237
1.44119630519  6.22365455159  6.9397241304  m  1  1  1  v  -3.98450321671e-05  3.88483689414e-05  5.17687629153e-05
-1.63872480544  6.20104320726  6.89844567702  m  1  1  1  v  0.000202101618131  -8.52064788463e-05  0.000102579835838
-0.0789704511693  3.55465030362  6.9191947441  m  1  1  1  v  9.29637446216e-05  0.000260113433976  -0.000128277884747
2.96674123399  1.80618439686  9.47786544648  m  1  1  1  v  -6.223331552e-05  0.00010182383858  0.000170669553396
6.04450249224  1.81450117001  9.50095160961  m  1  1  1  v  3.43480438844e-05  -0.000144861804456  -0.000166224766229
4.50529067456  4.46024710944  9.49261896403  m  1  1  1  v  0.000142793848799  -5.88033602179e-06  -4.64679677565e-05
1.47923337997  6.20736650318  1.90025228936  m  1  1  1  v  3.7944452879e-05  -6.98763319967e-05  -0.000278206453577
-1.57719847064  6.18560955464  1.87239209248  m  1  1  1  v  0.000118492666161  -0.000330011601535  0.000213994571577
-0.0463813937207  3.54507655786  1.8781491436  m  1  1  1  v  -8.9186716058e-05  -0.000266543032588  -2.54235250421e-05
