ATOMIC_SPECIES
Si 28.085 Si_ONCV_PBE-1.0.upf
C 12.011 C_ONCV_PBE-1.0.upf

LATTICE_CONSTANT
1.8897261254578281

LATTICE_VECTORS
9.411784759255811 0.0 0.0 
-4.784991104242848 7.762612946670973 0.0 
-0.18351202882716222 0.028995900234996708 10.067885183457319 

ATOMIC_POSITIONS
Cartesian    # Cartesian(Unit is LATTICE_CONSTANT)
Si
0.0
36
-0.038361612884 1.770352782499 2.508946535100 1 1 1
3.014367668161 7.111880580412 2.531339582867 1 1 1
-3.124394132840 7.075661042847 2.471833724948 1 1 1
4.528142752164 6.231543026556 5.064334074650 1 1 1
1.485255937915 0.899403482387 5.042639209901 1 1 1
7.620024421375 0.933307894002 5.101080321735 1 1 1
-0.073856719369 1.781979139766 7.550675236140 1 1 1
2.962535952756 7.115484805313 7.571772321194 1 1 1
-3.175057845424 7.084526242320 7.514688552249 1 1 1
4.481696837114 6.245308880632 10.108854462236 1 1 1
1.436640825521 0.903834492970 10.083016837149 1 1 1
7.575581694827 0.939581528850 10.135843240737 1 1 1
-1.579704129358 4.425378676107 2.494838816540 1 1 1
1.487401264215 4.443420249133 2.521149535185 1 1 1
-0.053531185169 7.090152734040 2.505414531240 1 1 1
6.074210289350 3.582757995481 5.090422118372 1 1 1
3.004961433137 3.574008652339 5.061877857255 1 1 1
4.549118928415 0.912198830628 5.067678300440 1 1 1
-1.628635598691 4.429716852899 7.523256835688 1 1 1
1.446026235207 4.448432264754 7.557125484358 1 1 1
-0.098664992780 7.094772225945 7.543714789284 1 1 1
6.029798522576 3.588560618719 10.119962438642 1 1 1
2.960958774274 3.574345689505 10.090944151660 1 1 1
4.507536891744 0.924282955505 10.110612933859 1 1 1
3.030373997103 1.785588499760 2.537205751051 1 1 1
6.102547524965 1.808053290365 2.563872353235 1 1 1
4.556285090252 4.454683837854 2.551500880694 1 1 1
1.459136882983 6.216490156251 5.038366680788 1 1 1
-1.607186867606 6.199085962702 5.002768539577 1 1 1
-0.067589644972 3.555349069199 5.027860930583 1 1 1
2.990163119231 1.795925281693 7.573140704007 1 1 1
6.069371576048 1.808897672672 7.603354727350 1 1 1
4.511971155848 4.463670148904 7.592445984281 1 1 1
1.413236829522 6.222487792236 10.074037482443 1 1 1
-1.651190316216 6.213184924342 10.049299011006 1 1 1
-0.110196270589 3.558140593356 10.065081868947 1 1 1
C
0.0
36
-0.047666260738 1.777550014657 4.405037133789 1 1 1
2.999565740254 7.112432969694 4.429271461817 1 1 1
-3.140887665520 7.081857195799 4.367577425806 1 1 1
4.510963808546 6.235403323112 6.956928190371 1 1 1
1.467467109123 0.901033799098 6.936796594561 1 1 1
7.604197854709 0.935940713432 6.996252516638 1 1 1
-0.095918065276 1.788423839347 9.448330564164 1 1 1
2.944296128349 7.111736691959 9.459438790186 1 1 1
-3.186160807722 7.083483446451 9.410441643220 1 1 1
4.553268896839 6.227786949144 1.928458828372 1 1 1
1.509210131609 0.900535352117 1.903768199387 1 1 1
7.656644129580 0.931857698306 1.964660442404 1 1 1
-1.594375656989 4.424946323702 4.391326395010 1 1 1
1.475839094167 4.446255066985 4.414374798029 1 1 1
-0.068761652677 7.090171416706 4.392872216628 1 1 1
6.058298047543 3.584491733895 6.977088894276 1 1 1
2.983366886076 3.573805371907 6.944740365020 1 1 1
4.542607045803 0.913301820920 6.968262593928 1 1 1
-1.642445772840 4.435651984203 9.423765959396 1 1 1
1.434210363611 4.444903822640 9.450172429908 1 1 1
-0.120868040890 7.101300048547 9.435122870919 1 1 1
6.104502893052 3.575323876408 1.942596072024 1 1 1
3.036161559425 3.559857348831 1.915812286511 1 1 1
4.581206786638 0.910780541006 1.930795305222 1 1 1
3.019794530239 1.793686507451 4.432325842493 1 1 1
6.088351753361 1.806607078721 4.463521024719 1 1 1
4.549068797303 4.457300639578 4.449180788071 1 1 1
1.440681064068 6.222998108686 6.935600772861 1 1 1
-1.633550682202 6.198259389336 6.898698932922 1 1 1
-0.080051181820 3.549429552999 6.915137369161 1 1 1
2.971921060100 1.803168114935 9.473677777104 1 1 1
6.042231354801 1.816968167858 9.495907365069 1 1 1
4.496375223335 4.467317994510 9.480381288359 1 1 1
1.481892500256 6.212351387916 1.900988790055 1 1 1
-1.579622658275 6.199292615759 1.868114572268 1 1 1
-0.034582936828 3.546639218392 1.885721460958 1 1 1

NUMERICAL_ORBITAL
Si_gga_9au_100Ry_3s3p2d.orb
C_gga_9au_100Ry_3s3p2d.orb
