ATOMIC_SPECIES
Si 28.085 Si_ONCV_PBE-1.0.upf upf201
C 12.011 C_ONCV_PBE-1.0.upf upf201

NUMERICAL_ORBITAL
Si_gga_9au_100Ry_3s3p2d.orb
C_gga_9au_100Ry_3s3p2d.orb

LATTICE_CONSTANT
1.88972612546

LATTICE_VECTORS
9.43252540382 0 0 #latvec1
-4.65350672627 7.88470821032 0 #latvec2
0.00191905443398 0.296936594393 10.1397726598 #latvec3

ATOMIC_POSITIONS
Cartesian

Si #label
0 #magnetism
36 #number of atoms
0.00997190124931  1.81423736053  2.48713954273  m  1  1  1  v  2.08222112447e-05  -5.34848695057e-06  1.34555746122e-05
3.09838477804  7.12082126962  2.42219987827  m  1  1  1  v  8.80550339023e-06  -1.47003972316e-05  2.75078094137e-05
-3.033691887  7.13938171332  2.40869731843  m  1  1  1  v  -5.13704579227e-05  1.41017324051e-05  -1.22500325592e-05
4.62131167995  6.27056855565  4.93716976986  m  1  1  1  v  5.06210832341e-05  -5.44693153308e-05  3.69179263889e-06
1.53441211778  0.957662433801  5.02403582549  m  1  1  1  v  1.45510166814e-05  3.88272604189e-05  -2.83786180457e-05
7.68174471039  0.927951051281  5.01588824032  m  1  1  1  v  3.19016495298e-07  -5.67690194237e-06  5.60940028368e-06
0.00832651437108  1.8865631095  7.54079925956  m  1  1  1  v  -3.59402677604e-05  -4.7374172969e-06  -8.39284815119e-07
3.09565130847  7.18723920277  7.44556926299  m  1  1  1  v  2.41853717426e-05  2.49994627707e-05  -4.10585253683e-05
-3.04064700335  7.22865996026  7.4541308232  m  1  1  1  v  4.91735204922e-05  1.34704857126e-05  -2.21277793633e-06
4.61988526185  6.33146609667  9.98238362533  m  1  1  1  v  4.51656259477e-06  -1.56630651859e-05  2.29569199702e-05
1.54279304389  1.03176608835  10.0573281935  m  1  1  1  v  -3.60673516164e-06  4.31457733531e-05  -7.86229155721e-06
7.68301413915  1.00751564996  10.0573146342  m  1  1  1  v  1.52729539727e-05  -3.04159189209e-05  -2.5113218204e-05
-1.52113116335  4.47094182914  2.45481970621  m  1  1  1  v  -6.1575338024e-06  -1.85475888336e-05  -2.91298305641e-05
1.54696239127  4.47995255002  2.45914441037  m  1  1  1  v  6.82219232602e-06  2.35216016119e-05  -9.81867343464e-06
0.0371811736705  7.12459634364  2.42185208306  m  1  1  1  v  -9.31283028812e-06  -1.4861185074e-05  -4.55236308994e-05
6.153092542  3.60661134442  4.99620273713  m  1  1  1  v  -1.31307426207e-07  -1.28883568417e-05  3.20378699329e-05
3.07299382679  3.60581209685  4.98416441942  m  1  1  1  v  -3.57207413218e-06  5.65397935133e-05  -1.06519198904e-06
4.61139346707  0.943544110728  5.01880493529  m  1  1  1  v  -2.18821980159e-05  7.66364199516e-07  1.65814596405e-05
-1.51928378762  4.54283405799  7.46917312683  m  1  1  1  v  6.00738108406e-07  7.63174208248e-06  -2.47717324543e-05
1.56456049243  4.54248429761  7.49258680671  m  1  1  1  v  1.7587874155e-05  3.70421200359e-05  -3.70673936403e-05
0.0365420661316  7.19844780132  7.43749391355  m  1  1  1  v  5.3533948387e-06  -1.94670914353e-05  -6.11241697166e-06
6.15159515071  3.66222655502  10.0152458896  m  1  1  1  v  1.8244697657e-05  2.82925424105e-05  -1.48488975351e-05
3.0852344185  3.68047962925  10.0156348758  m  1  1  1  v  -1.37193485462e-05  1.24263692237e-05  -2.94349873755e-05
4.61705926012  1.02281686391  10.0405707862  m  1  1  1  v  2.66233922009e-05  1.69441610939e-05  5.69915681345e-07
3.08117731428  1.79197209679  2.48110954213  m  1  1  1  v  2.58302585565e-06  2.65374634387e-05  -4.88169442525e-06
6.13536314865  1.78279005934  2.48544612306  m  1  1  1  v  1.23301498859e-05  -6.6101623716e-06  2.91507443929e-05
4.6155025401  4.44863523415  2.45600764436  m  1  1  1  v  -7.94985273518e-07  1.85029206306e-05  -4.40263366491e-06
1.56238878039  6.2758461061  4.94032248133  m  1  1  1  v  -4.57363578911e-05  5.29439844793e-05  -2.59179792814e-05
-1.49991226075  6.28989947318  4.92774982344  m  1  1  1  v  1.28455016267e-05  -3.38609726261e-05  2.37431330036e-05
0.00682763992405  3.626910056  4.98343126926  m  1  1  1  v  -2.49032512124e-05  -3.9395597677e-06  -4.0296572377e-05
3.07657474308  1.86800889032  7.52639994341  m  1  1  1  v  -2.88074898566e-05  -1.177375606e-05  3.40952242417e-05
6.16312136793  1.85883407847  7.52808201443  m  1  1  1  v  -6.10086977136e-05  2.73674370865e-06  3.91217072301e-05
4.61154078681  4.52266959116  7.49511347858  m  1  1  1  v  3.16797747136e-05  -2.13812044224e-05  3.20890412082e-05
1.54876413759  6.3468388341  9.97704845062  m  1  1  1  v  -2.54901981885e-05  -1.6014034434e-05  -2.73751988562e-05
-1.50882105263  6.36108055335  9.98852883663  m  1  1  1  v  5.05569824879e-06  -3.46447231809e-05  -1.99980436516e-05
0.0160097121158  3.68719014283  10.0006904322  m  1  1  1  v  4.44762661357e-06  -5.48247991553e-06  4.95554440045e-06

C #label
0 #magnetism
36 #number of atoms
0.00770103184156  1.8348051693  4.37403963604  m  1  1  1  v  -3.45923957259e-05  2.31947392564e-05  -2.78639326482e-05
3.0963877286  7.15330226587  4.31390346606  m  1  1  1  v  -6.29539355816e-06  -2.27555423688e-05  -2.3092418558e-05
-3.03065707586  7.17188134091  4.30711581396  m  1  1  1  v  2.49761263203e-05  2.88595732134e-05  9.06693765834e-07
4.63580248208  6.2765550099  6.83239444834  m  1  1  1  v  1.28495588891e-06  3.02695879223e-05  4.78883536891e-05
1.53861171843  0.981765790182  6.91153019431  m  1  1  1  v  -6.00497084141e-06  -2.85653333107e-05  -8.24729123228e-06
7.6699389886  0.962280322948  6.92122412502  m  1  1  1  v  4.3819650622e-05  2.05454783474e-05  5.7519950912e-05
0.00544238720315  1.92411314516  9.41549745071  m  1  1  1  v  6.4663973941e-06  -4.42216575238e-05  -4.57011079404e-05
3.09003339672  7.19617084954  9.33458050599  m  1  1  1  v  -2.15743502958e-05  -7.66476759401e-05  2.7788686913e-05
-3.03531660655  7.23526463909  9.34130601489  m  1  1  1  v  7.94339240274e-05  -4.84710844697e-05  9.5541151639e-06
4.62147747666  6.20657254822  1.81317137095  m  1  1  1  v  -3.2330166362e-05  1.09733071286e-05  6.07247172409e-05
1.5390234448  0.906787350242  1.86899585244  m  1  1  1  v  4.08331703428e-07  4.2447731878e-05  5.07380830409e-05
7.69002394589  0.895682110784  1.8898535589  m  1  1  1  v  1.99204204328e-05  6.17470375692e-06  3.61194500694e-07
-1.52503912845  4.49429633683  4.34314679421  m  1  1  1  v  7.41341011426e-05  2.11513898427e-06  -1.56532505777e-05
1.55880262392  4.47828795553  4.345684481  m  1  1  1  v  5.82099065719e-06  3.25707082865e-05  -5.10475635618e-05
0.0342407516532  7.15609250959  4.30775002856  m  1  1  1  v  1.64812962036e-05  -4.67928482166e-05  4.29393618875e-05
6.15036556474  3.6252621849  6.87417437381  m  1  1  1  v  -4.86064611245e-05  -2.46948308442e-05  -4.62065171308e-05
3.07567851493  3.64018173885  6.86374133404  m  1  1  1  v  -3.26664090176e-05  1.13089011225e-05  -4.85603418362e-05
4.6242392106  0.979397128278  6.91140905931  m  1  1  1  v  1.78975427945e-05  3.88426838035e-06  1.68082798518e-05
-1.51090641487  4.57909158254  9.38492393718  m  1  1  1  v  -7.5791436763e-05  1.77636280098e-05  1.11371367816e-05
1.5561342116  4.56364062272  9.36917064899  m  1  1  1  v  -3.07957605584e-05  -2.59671471023e-05  9.34355141043e-05
0.020508331395  7.24155961982  9.33525217133  m  1  1  1  v  1.84011013175e-05  5.91290742065e-07  -1.9088776954e-05
6.14597880431  3.54222062634  1.84475430787  m  1  1  1  v  2.86626021822e-05  -6.24158857762e-05  3.97885790174e-05
3.08769547302  3.55026370829  1.84867114452  m  1  1  1  v  1.67668790751e-05  -1.5952689281e-05  7.71966184706e-05
4.60558838342  0.884791173524  1.86523920006  m  1  1  1  v  -1.52391268922e-05  -3.50497059733e-06  -7.72180734408e-05
3.07635472911  1.8288708795  4.38020105882  m  1  1  1  v  1.49619373817e-05  -3.02222885472e-05  2.47818291774e-06
6.14522635089  1.81012665208  4.37979040162  m  1  1  1  v  -2.4602340928e-05  -2.54120505301e-05  6.37272349724e-05
4.63625359881  4.47360832418  4.34788151359  m  1  1  1  v  4.75924329625e-05  4.70840044982e-05  -2.23257699486e-05
1.56909327366  6.29907648511  6.83633082389  m  1  1  1  v  -4.93671056398e-05  5.65543139957e-05  5.98335135065e-05
-1.51380214051  6.29765504176  6.8305217777  m  1  1  1  v  3.89978628582e-05  -3.1159385664e-05  2.32768776533e-05
0.00601559748791  3.63679302409  6.87334064634  m  1  1  1  v  -3.89061135847e-05  2.41624980458e-05  7.0394117947e-06
3.06367085358  1.88994810253  9.42129167756  m  1  1  1  v  2.3461407892e-05  -4.56840597088e-05  6.14269478324e-07
6.13440993719  1.88824709999  9.4149987704  m  1  1  1  v  -4.13939429452e-05  -1.0535026747e-05  1.99978088189e-05
4.62349300166  4.5578279739  9.37267882793  m  1  1  1  v  3.34761223275e-06  -2.0306499026e-05  -3.42453865083e-05
1.56016744501  6.21593979343  1.80707315255  m  1  1  1  v  -1.90023527478e-05  6.25243107546e-05  6.97428300338e-05
-1.49993262671  6.2352523016  1.81614391935  m  1  1  1  v  3.04790471808e-05  -4.47570255169e-05  3.52521851059e-05
0.0240823824405  3.57111720759  1.84709576384  m  1  1  1  v  -3.61640007638e-05  -1.8604412712e-05  -4.22262413575e-05
