ATOMIC_SPECIES
Si 28.085 Si_ONCV_PBE-1.0.upf upf201
C 12.011 C_ONCV_PBE-1.0.upf upf201

NUMERICAL_ORBITAL
Si_gga_9au_100Ry_3s3p2d.orb
C_gga_9au_100Ry_3s3p2d.orb

LATTICE_CONSTANT
1.88972612546

LATTICE_VECTORS
9.43252540382 0 0 #latvec1
-4.65350672627 7.88470821032 0 #latvec2
0.00191905443398 0.296936594393 10.1397726598 #latvec3

ATOMIC_POSITIONS
Cartesian

Si #label
0 #magnetism
36 #number of atoms
0.00731784961511  1.82684279111  2.486591258  m  1  1  1  v  7.08270367266e-05  0.000261654381182  -0.000171258094655
3.11046016854  7.11089830922  2.42144804441  m  1  1  1  v  0.000267797854993  0.000108195114317  -0.000250784462673
-3.04739758032  7.12236126777  2.40676373902  m  1  1  1  v  0.000129302558453  -4.27318914447e-05  0.000142157126438
4.61379975986  6.26382914448  4.93737618008  m  1  1  1  v  -5.293899393e-05  5.92468591995e-06  -1.80446564995e-05
1.52208015728  0.967474375418  5.02279064096  m  1  1  1  v  -6.16064941335e-05  -5.72043285701e-06  9.02769965685e-05
7.6769663523  0.953361991269  5.02279570671  m  1  1  1  v  -7.78129907114e-05  5.74673992914e-05  2.0448015039e-05
-0.00338223964156  1.88161283275  7.5437483837  m  1  1  1  v  0.000241216889635  -3.28029555416e-05  7.41343883272e-05
3.08693009632  7.18911491376  7.44205924244  m  1  1  1  v  -4.83023331088e-05  -0.000314410118197  -2.70962858982e-05
-3.0464291975  7.22722835074  7.46839122459  m  1  1  1  v  -0.0001310093621  9.7261349055e-05  0.000250306341576
4.60687652222  6.33831052469  9.99420932273  m  1  1  1  v  -0.000176626040718  -0.000147778283502  0.000116777035809
1.52483612843  1.03244832071  10.0581017531  m  1  1  1  v  -7.70950572496e-05  0.000285227543689  5.82469553493e-05
7.69860893512  1.01765531277  10.0522675935  m  1  1  1  v  0.000105167243814  0.000231301001866  -0.00013557056475
-1.53975858199  4.46643580265  2.46466008886  m  1  1  1  v  0.000142870273186  1.15985034297e-05  0.000166820670201
1.55098386569  4.48613761682  2.46228757665  m  1  1  1  v  -3.73521970943e-05  -7.31405578018e-05  0.000158159477454
0.027959390189  7.1149989079  2.40323411003  m  1  1  1  v  -6.2749322696e-05  0.000175079468335  0.000178405511251
6.16118220787  3.60080902722  5.00064362955  m  1  1  1  v  7.3037156253e-05  -0.000217872734527  -0.000136998921026
3.07241513809  3.60078373395  4.97626929914  m  1  1  1  v  -0.000232211950018  5.30572553706e-05  -0.0001574977441
4.60340009308  0.949253618888  5.02762433005  m  1  1  1  v  -0.000158160458864  -7.47447848227e-06  -0.000127216013916
-1.53688601907  4.54957495795  7.48083421989  m  1  1  1  v  -0.00021250150951  0.000183492392291  2.61437165573e-05
1.57223368289  4.55080575369  7.49369536245  m  1  1  1  v  4.97071836156e-05  -2.90483078842e-05  0.000191152417413
0.036010137169  7.21205036083  7.44406622221  m  1  1  1  v  0.000153209643186  0.000196020464143  0.00015343861993
6.15043995058  3.6600547641  10.0147475909  m  1  1  1  v  -8.87377374057e-05  1.03836582201e-05  2.97875298087e-05
3.09245016974  3.67751024643  10.0294175813  m  1  1  1  v  6.38505393111e-05  -0.000164376262853  4.9236668987e-05
4.62614323564  1.0341211635  10.0395834371  m  1  1  1  v  -9.15563100294e-05  0.000129040462138  2.15344054714e-06
3.08013538846  1.80717169018  2.48967902109  m  1  1  1  v  9.44560502838e-05  -0.000276186152168  0.000203050166536
6.12334506915  1.79246025019  2.49189837055  m  1  1  1  v  0.000266211061916  0.000112115335986  -2.99770597264e-05
4.60869110975  4.45517044248  2.45354621761  m  1  1  1  v  0.000144054328543  0.00018517058297  1.9818930576e-05
1.57377609087  6.27961707304  4.93505661628  m  1  1  1  v  -4.17971642419e-05  2.32478583194e-05  -1.42203132254e-06
-1.50212171694  6.28509019542  4.93083987029  m  1  1  1  v  0.000164770315898  0.000151990639015  -0.00014132238995
0.0147539114648  3.6286089044  4.9791766754  m  1  1  1  v  -0.00013541816779  0.000209411359067  -0.00016224130336
3.06358689252  1.86439981489  7.52969759876  m  1  1  1  v  -0.000247300949542  5.86093941288e-05  7.78646817055e-05
6.1655791795  1.87299380631  7.52438389294  m  1  1  1  v  0.000214044323032  -4.80701379418e-05  5.82899916726e-05
4.61610025836  4.52953333649  7.49481033855  m  1  1  1  v  -9.22337618272e-05  3.25350076623e-06  0.000208457503156
1.55583884526  6.33982838033  9.97617576654  m  1  1  1  v  -5.05751484711e-05  -7.63225798488e-05  1.76931453836e-05
-1.51658413189  6.36272565459  9.98565516947  m  1  1  1  v  -5.87859290929e-05  -3.63519417156e-06  6.86909404622e-05
0.0228627971336  3.68880083697  9.99957074421  m  1  1  1  v  0.000134368615081  -6.28623646866e-05  -0.000153889375707

C #label
0 #magnetism
36 #number of atoms
-0.0202063629336  1.84516011462  4.38487056917  m  1  1  1  v  0.000162956080355  6.07034055804e-05  3.42188120856e-05
3.08406829541  7.12423499147  4.28582899024  m  1  1  1  v  0.000249995627127  2.81056662674e-05  -0.000402623443559
-3.05194964546  7.1766136818  4.31353767048  m  1  1  1  v  -0.000336313907695  0.000236591979143  0.000330347318513
4.66993426011  6.27302480542  6.81903532497  m  1  1  1  v  1.35397150333e-05  -0.000347996047913  0.000180526868383
1.53571056088  1.00641734372  6.89266105155  m  1  1  1  v  -0.000251973267782  -0.000220707267429  -0.000296919731036
7.68969707503  0.979928311526  6.88967783583  m  1  1  1  v  -7.07546816498e-05  -0.000366295106279  0.000124652331805
-0.0324406341862  1.90203348728  9.4266812729  m  1  1  1  v  -4.54264929005e-05  -0.000119146861001  0.000155796387004
3.08998129647  7.1942235679  9.32241713394  m  1  1  1  v  -0.000174706588498  0.000318159069802  3.95884254839e-05
-3.04070824387  7.23316098919  9.35512492088  m  1  1  1  v  0.000256364566475  0.0001804929336  5.82004132565e-05
4.64544645023  6.19052594643  1.80782508523  m  1  1  1  v  -5.7193621497e-05  -1.24594012321e-05  0.000407712170344
1.53552327022  0.927937044565  1.86242999489  m  1  1  1  v  0.000145454054452  0.000184332975829  -5.40858158503e-05
7.69401146535  0.925467096623  1.89179461109  m  1  1  1  v  0.000228782966424  -7.15009790255e-05  -1.10717955444e-05
-1.55968011998  4.47456929346  4.33840868175  m  1  1  1  v  -0.000289526188141  -0.000405638940779  -0.000120681734665
1.54185653307  4.51215865354  4.3167332936  m  1  1  1  v  -0.000433506927567  8.9797072208e-05  -8.1848395197e-06
0.0308891316377  7.15691580055  4.3218235766  m  1  1  1  v  0.000208164749408  -0.000172072488287  -0.000325408664442
6.16247173674  3.65625946297  6.88241948087  m  1  1  1  v  -2.57438235382e-05  0.000247583129039  -0.000257256671538
3.06466624054  3.61705190228  6.85762607267  m  1  1  1  v  8.12833859164e-05  -0.000259457196074  0.000144428738649
4.61961040562  0.996890441447  6.88148023182  m  1  1  1  v  0.000195067479105  0.000114067915916  -5.19079642981e-05
-1.54824068529  4.55923415833  9.38901429252  m  1  1  1  v  -0.000327418885507  -0.000141005715337  -0.000308308803215
1.5562263901  4.58081878249  9.35909031736  m  1  1  1  v  0.000252505437593  0.000264735636274  0.000167207530637
0.0218496363376  7.21751400856  9.35273882377  m  1  1  1  v  0.000176750465114  -9.6249338582e-05  0.000303472703599
6.16396931499  3.55373210489  1.83373107687  m  1  1  1  v  0.000228749208546  0.000103060801561  -0.000342547145405
3.09816322113  3.5437215324  1.82511198445  m  1  1  1  v  0.000216724574848  -0.000153201749741  -0.000242755169801
4.62209298034  0.894496958977  1.86497887298  m  1  1  1  v  6.13967300141e-05  -3.5167639997e-05  -0.000183977449252
3.08452952118  1.84744768593  4.37835972626  m  1  1  1  v  2.6998315571e-05  9.84393868794e-05  -0.000250594581795
6.16374721372  1.805237743  4.36865979331  m  1  1  1  v  0.000206760604647  6.40336685673e-05  2.16403570232e-05
4.65211024312  4.4949796897  4.3320230838  m  1  1  1  v  -6.45208546333e-05  8.36647894016e-05  -0.000259003504574
1.57915601402  6.28938913039  6.86387656406  m  1  1  1  v  5.63566312811e-05  -0.000206520831433  0.000254362529811
-1.52083565246  6.30876123081  6.84100378195  m  1  1  1  v  3.12648318508e-05  -1.44663141597e-06  0.000161256640216
0.015104272205  3.64335159408  6.87280920442  m  1  1  1  v  0.000208647396493  -0.000255001438713  -5.02207944605e-05
3.05421995257  1.9050484858  9.41606253014  m  1  1  1  v  -0.000119488183139  -7.85176612036e-05  -0.000127734573041
6.14671563141  1.87110877053  9.4038345949  m  1  1  1  v  0.000176255623089  -0.000367753151263  -2.39197238874e-05
4.62747028468  4.55627660597  9.37441395206  m  1  1  1  v  -0.000164071851843  -0.000167754369284  0.000324400147265
1.56576463671  6.20194627043  1.80185315024  m  1  1  1  v  0.000109860798325  -7.79697581557e-05  0.000176457657412
-1.50029872019  6.20090692154  1.83238548343  m  1  1  1  v  -3.9477449702e-05  -5.50740173938e-05  0.000271461218265
0.0222884747211  3.57494040867  1.81963077315  m  1  1  1  v  -0.000275908022305  0.000151390087992  -0.000163537546535
