ATOMIC_SPECIES
Si 28.085 Si_ONCV_PBE-1.0.upf
C 12.011 C_ONCV_PBE-1.0.upf

LATTICE_CONSTANT
1.8897261254578281

LATTICE_VECTORS
9.533283437228802 0.0 0.0 
-4.648217614379068 8.005367605134616 0.0 
0.23535925143682718 -0.17982218210184747 10.289192638574411 

ATOMIC_POSITIONS
Cartesian    # Cartesian(Unit is LATTICE_CONSTANT)
Si
0.0
36
0.043438818403 1.770061164096 2.557308345784 1 1 1
3.189958983352 7.100448692128 2.570046033266 1 1 1
-3.016493401998 7.162499470707 2.636445867255 1 1 1
4.752942533810 6.189100463783 5.085347231539 1 1 1
1.607036850247 0.836037069314 5.076353549146 1 1 1
7.823258850864 0.802162795452 4.988497965096 1 1 1
0.107269886042 1.709248135521 7.642003025123 1 1 1
3.247626920041 7.076663532492 7.660544502614 1 1 1
-2.947108635734 7.102563764067 7.733327284519 1 1 1
4.807732039564 6.130495544649 10.164837589175 1 1 1
1.678474926433 0.798585605489 10.163189646348 1 1 1
7.870744958812 0.741600592294 10.095405835844 1 1 1
-1.493572664056 4.464005752156 2.607237771906 1 1 1
1.603721125713 4.436550683336 2.563609020776 1 1 1
0.088146015464 7.135266059056 2.603019059215 1 1 1
6.285017968216 3.494175353208 5.046540431547 1 1 1
3.175876919613 3.500188452880 5.077526511602 1 1 1
4.720900113393 0.820351919804 5.042398576325 1 1 1
-1.437255308394 4.416932326593 7.679397309215 1 1 1
1.661245920159 4.389569302023 7.661725801248 1 1 1
0.139195017427 7.096762944016 7.681688905358 1 1 1
6.338433560945 3.456283019417 10.125621796601 1 1 1
3.246086927562 3.464123939734 10.150330133999 1 1 1
4.767348688124 0.759849151058 10.122165722548 1 1 1
3.144234961019 1.732928710019 2.507560702828 1 1 1
6.233910279058 1.717032459440 2.481160315464 1 1 1
4.704998574306 4.411918827897 2.530690390867 1 1 1
1.653816103172 6.206231910376 5.121628979724 1 1 1
-1.444643720967 6.230284094810 5.146461753029 1 1 1
0.078582139842 3.521800703735 5.118936466695 1 1 1
3.197866294181 1.697621954261 7.607597373529 1 1 1
6.300122184446 1.674898533182 7.561842807240 1 1 1
4.773453068662 4.378280524634 7.592094994451 1 1 1
1.707018154069 6.153628465976 10.212741969571 1 1 1
-1.394908921328 6.178573637794 10.230035377335 1 1 1
0.150136229324 3.490043747539 10.194407973884 1 1 1
C
0.0
36
0.058075596416 1.750368424135 4.463963084589 1 1 1
3.198883951243 7.095386675007 4.483001538033 1 1 1
-3.009754457085 7.127797224592 4.551258154755 1 1 1
4.774592913042 6.170095070784 6.988623180687 1 1 1
1.618807897116 0.829678247158 6.980418534961 1 1 1
7.844654003971 0.782876487412 6.918891766163 1 1 1
0.118182940854 1.707520769704 9.554480150332 1 1 1
3.254348497130 7.060788068999 9.573309410776 1 1 1
-2.931295395067 7.092766583951 9.624744293894 1 1 1
4.729131257681 6.208972144261 1.913206134182 1 1 1
1.583620843064 0.857062031058 1.904097685152 1 1 1
7.790192891549 0.816438691739 1.829449462583 1 1 1
-1.466256523707 4.452997541799 4.521593444267 1 1 1
1.635280543146 4.420460777304 4.478425769039 1 1 1
0.106381485183 7.130849041727 4.520529027409 1 1 1
6.304388633632 3.466027676475 6.958219961023 1 1 1
3.200310579733 3.491028609450 6.989094975259 1 1 1
4.739953896803 0.792195646978 6.952565535747 1 1 1
-1.413858237355 4.396234205762 9.593037621510 1 1 1
1.695262501802 4.389324582898 9.561166143179 1 1 1
0.155388684673 7.081170100670 9.596498313237 1 1 1
6.258410403991 3.525512075075 1.869471238447 1 1 1
3.136887638575 3.537168623773 1.906580008002 1 1 1
4.669473936974 0.837603302091 1.865882123577 1 1 1
3.151100122838 1.731303112920 4.441843673349 1 1 1
6.265417587862 1.707277217052 4.396058495122 1 1 1
4.724023202885 4.391180850079 4.451016905735 1 1 1
1.669104036405 6.196359461859 7.024901323418 1 1 1
-1.428562587241 6.209325750479 7.073495444578 1 1 1
0.103748055616 3.513007558572 7.027676698013 1 1 1
3.235360625003 1.680943412514 9.507440879435 1 1 1
6.320494118643 1.661100368422 9.483711322161 1 1 1
4.790652030504 4.355471646106 9.522899318359 1 1 1
1.622479009588 6.241387183214 1.952928251659 1 1 1
-1.486577243216 6.247785769905 1.987092724529 1 1 1
0.039375403713 3.561056130399 1.947002749245 1 1 1

NUMERICAL_ORBITAL
Si_gga_9au_100Ry_3s3p2d.orb
C_gga_9au_100Ry_3s3p2d.orb
