ATOMIC_SPECIES
Si 28.085 Si_ONCV_PBE-1.0.upf
C 12.011 C_ONCV_PBE-1.0.upf

LATTICE_CONSTANT
1.8897261254578281

LATTICE_VECTORS
8.80589541507313 0.0 0.0 
-0.2636146545232462 8.906397512571832 0.0 
-0.05992616836394515 -0.011088948129865567 8.904438282770053 

ATOMIC_POSITIONS
Cartesian    # Cartesian(Unit is LATTICE_CONSTANT)
Si
0.0
32
3.267766299145 1.143645778132 3.306551329112 1 1 1
3.244609648098 1.154525649022 7.682629279652 1 1 1
3.197735896288 5.536912324965 3.310932624671 1 1 1
3.192832770320 5.535058067424 7.707953582129 1 1 1
7.653740091587 1.205810711444 3.322090302334 1 1 1
7.648934265145 1.208658177722 7.722368710507 1 1 1
7.580901253505 5.605658404801 3.340924737003 1 1 1
7.584539197956 5.591526070314 7.691931868559 1 1 1
3.242987594670 3.343096325414 1.126312682615 1 1 1
3.221655896660 3.350670195815 5.512098507933 1 1 1
3.182330619436 7.740517800089 1.110921808053 1 1 1
3.170791564500 7.739356671459 5.488523152439 1 1 1
7.625369324653 3.411900507011 1.110349312344 1 1 1
7.613232367098 3.392634621310 5.520057990373 1 1 1
7.557590619399 7.803438931432 1.139352546818 1 1 1
7.558981268249 7.796210216572 5.542916232289 1 1 1
1.080321470157 1.107917405740 1.097298469675 1 1 1
1.072683798650 1.117855082047 5.499048544248 1 1 1
1.021711404489 5.512572615582 1.107727657271 1 1 1
1.011473350810 5.491038508716 5.498477998660 1 1 1
5.455680312122 1.175488658926 1.119188072279 1 1 1
5.458605445348 1.176611784919 5.507759622901 1 1 1
5.396543255200 5.568037111048 1.108665876902 1 1 1
5.411769382686 5.590663354919 5.512937966732 1 1 1
1.037102843790 3.309295707799 3.287325836759 1 1 1
1.031258335754 3.325361764685 7.691173723824 1 1 1
0.973167652318 7.706022734137 3.287697770569 1 1 1
0.978173694860 7.694631261590 7.698665074843 1 1 1
5.430697246721 3.364068192342 3.312328923337 1 1 1
5.412182305839 3.364179764306 7.693776371483 1 1 1
5.362761946634 7.764451991408 3.303967742366 1 1 1
5.344951544012 7.759448025769 7.704738133137 1 1 1
C
0.0
32
8.796752521665 0.145859142476 0.027326003823 1 1 1
8.763380593789 0.132149553454 4.420985139955 1 1 1
8.730070046159 4.515789321017 0.041666278231 1 1 1
8.696830239824 4.529213364812 4.423911594727 1 1 1
4.402469608137 0.061858827085 0.006100269962 1 1 1
4.393744713493 0.070899371731 4.413551853429 1 1 1
4.338721992144 4.458741456623 0.015102686972 1 1 1
4.310124701188 4.438252404868 4.424567938346 1 1 1
8.744794811646 2.327683544382 2.234756421123 1 1 1
8.726436624522 2.324067128034 6.620796699588 1 1 1
8.664280523959 6.702068393406 2.231364266130 1 1 1
8.670706624504 6.714337985594 6.611475265737 1 1 1
4.338215216298 2.240991642434 2.203799431772 1 1 1
4.346951214258 2.257777143348 6.592819077976 1 1 1
4.298536931252 6.649977615775 2.220452490433 1 1 1
4.259060460484 6.651308710940 6.610013629773 1 1 1
2.196381040947 0.029380336136 2.216464417805 1 1 1
2.156459823148 0.036789449608 6.594333378256 1 1 1
2.117065351035 4.423069689173 2.205367748962 1 1 1
2.116781579856 4.423795358246 6.591373032004 1 1 1
6.582876560990 0.109132641569 2.204680622617 1 1 1
6.564935859010 0.094957874607 6.611216815559 1 1 1
6.510126788824 4.472158965570 2.209636460452 1 1 1
6.500732737195 4.465109073289 6.619532562781 1 1 1
2.149727655981 2.227273777637 0.002656479105 1 1 1
2.152797334132 2.224883822047 4.403064812489 1 1 1
2.111435762846 6.608338276661 0.011620387181 1 1 1
2.082624064500 6.604261100899 4.397376289435 1 1 1
6.552821487469 2.286585932001 0.019593002423 1 1 1
6.536497352033 2.281993935913 4.416392385094 1 1 1
6.502374751624 6.682518345995 0.037775181950 1 1 1
6.468230618891 6.689981633631 4.418918025411 1 1 1

NUMERICAL_ORBITAL
Si_gga_9au_100Ry_3s3p2d.orb
C_gga_9au_100Ry_3s3p2d.orb
