ATOMIC_SPECIES
Si 28.085 Si_ONCV_PBE-1.0.upf
C 12.011 C_ONCV_PBE-1.0.upf

LATTICE_CONSTANT
1.8897261254578281

LATTICE_VECTORS
8.464222414683299 0.0 0.0 
0.1894574362604805 8.539041666647114 0.0 
0.02752932217800267 -0.026354767117492052 8.923178047953732 

ATOMIC_POSITIONS
Cartesian    # Cartesian(Unit is LATTICE_CONSTANT)
Si
0.0
32
3.276717395101 1.050461148863 3.265432305805 1 1 1
3.292429717404 1.046268156187 7.602697970002 1 1 1
3.329738504258 5.397741382786 3.275854372905 1 1 1
3.325368085693 5.376327796199 7.618047949246 1 1 1
7.638023286275 1.003623349993 3.257991690826 1 1 1
7.636009910604 0.997475518138 7.603951565010 1 1 1
7.674999096534 5.353495117411 3.257135126943 1 1 1
7.680597895747 5.341216470381 7.618158626765 1 1 1
3.310509882317 3.233957889346 1.085326880874 1 1 1
3.302610871652 3.229171910984 5.424616288904 1 1 1
3.342542585376 7.559562269340 1.098238389975 1 1 1
3.356411054292 7.574873518004 5.436354716515 1 1 1
7.648857089187 3.161430707188 1.076686018359 1 1 1
7.660979085156 3.162170636819 5.427272794987 1 1 1
7.719096129151 7.520060606951 1.074134021112 1 1 1
7.689459113604 7.500227981824 5.444823487114 1 1 1
1.096667652539 1.072625722307 1.074234964581 1 1 1
1.118471182734 1.063855362897 5.444656886198 1 1 1
1.138404012558 5.426429143226 1.091418478355 1 1 1
1.162935733584 5.415925787317 5.449228151818 1 1 1
5.445696562737 1.022333857584 1.090026947077 1 1 1
5.457109580850 1.029056884374 5.424831344990 1 1 1
5.514106338497 5.355927756604 1.091820692776 1 1 1
5.498697610804 5.372938523429 5.443960211599 1 1 1
1.133734439846 3.240114825750 3.269503039902 1 1 1
1.128917389065 3.258848725990 7.617112357212 1 1 1
1.187283265697 7.596756345429 3.262298883567 1 1 1
1.180206520197 7.574435094839 7.634427091349 1 1 1
5.489313474006 3.187995293010 3.247344963279 1 1 1
5.483952179354 3.196088669777 7.609813075289 1 1 1
5.525534825891 7.544453222888 3.247115391038 1 1 1
5.527605579528 7.541286214158 7.615341415636 1 1 1
C
0.0
32
8.699677303983 -0.097023201401 0.002591583584 1 1 1
8.705273808672 -0.109106759147 4.324374478546 1 1 1
8.748556389690 4.242941494761 -0.011796601638 1 1 1
8.754043811535 4.235177213126 4.351512376071 1 1 1
4.361312803564 -0.043063521939 -0.008165325758 1 1 1
4.365729384694 -0.072701670407 4.343225897190 1 1 1
4.401396165570 4.295241526586 0.000512746266 1 1 1
4.384646865706 4.297417509180 4.339236263611 1 1 1
8.708496838923 2.091359632199 2.161845898982 1 1 1
8.723943554898 2.066478458717 6.528416951205 1 1 1
8.773099209348 6.419127114951 2.165844111244 1 1 1
8.784080878452 6.424527766576 6.522979252077 1 1 1
4.383263425272 2.126814013891 2.180921376909 1 1 1
4.388506283483 2.110137355061 6.522541943787 1 1 1
4.429717586332 6.460912946093 2.155348705644 1 1 1
4.425234949871 6.466078686010 6.519783405819 1 1 1
2.191947998961 -0.030173946245 2.173570974202 1 1 1
2.175143864056 -0.030274194813 6.534051671494 1 1 1
2.233275430974 4.311536550130 2.182295493808 1 1 1
2.231581890097 4.315069856991 6.528969830774 1 1 1
6.518410294208 -0.065629284962 2.165686121212 1 1 1
6.541779161497 -0.098125191951 6.516574887940 1 1 1
6.579903767460 4.266092820459 2.179476017045 1 1 1
6.583439512675 4.265650583240 6.518291844528 1 1 1
2.207035273740 2.137310323390 0.007992545494 1 1 1
2.190124094816 2.124433818312 4.348662447896 1 1 1
2.252223368711 6.491077745458 0.017955879017 1 1 1
2.245318785518 6.484296783652 4.361173442282 1 1 1
6.545791261785 2.103551071259 -0.002791627221 1 1 1
6.543928609282 2.093700002825 4.329170407192 1 1 1
6.596821522282 6.444190922136 0.003406008500 1 1 1
6.606648383292 6.436175107321 4.344700936160 1 1 1

NUMERICAL_ORBITAL
Si_gga_9au_100Ry_3s3p2d.orb
C_gga_9au_100Ry_3s3p2d.orb
