ATOMIC_SPECIES
Si 28.085 Si_ONCV_PBE-1.0.upf upf201
C 12.011 C_ONCV_PBE-1.0.upf upf201

NUMERICAL_ORBITAL
Si_gga_9au_100Ry_3s3p2d.orb
C_gga_9au_100Ry_3s3p2d.orb

LATTICE_CONSTANT
1.88972612546

LATTICE_VECTORS
8.70299226765 0 0 #latvec1
-0.234922913738 9.06606153226 0 #latvec2
0.233862539243 0.234687121855 8.86083884827 #latvec3

ATOMIC_POSITIONS
Cartesian

Si #label
0 #magnetism
32 #number of atoms
3.35446304974  1.20660348017  3.27563402018  m  1  1  1  v  2.01770079589e-05  -6.57608105145e-06  1.39095932127e-05
3.40857918156  1.25036248896  7.71207018764  m  1  1  1  v  8.30615591861e-06  -1.58144801691e-05  2.77912654796e-05
3.29824730846  5.63275576065  3.21485571663  m  1  1  1  v  -5.11394045277e-05  1.26380563744e-05  -1.14840056858e-05
3.33936413084  5.69210328823  7.63870540623  m  1  1  1  v  4.96141886441e-05  -5.51006930217e-05  4.26432159899e-06
7.79776892746  1.26743037574  3.2015846566  m  1  1  1  v  1.3981931597e-05  3.70634720726e-05  -2.74168264091e-05
7.86084650385  1.31136947608  7.63230390179  m  1  1  1  v  -7.73241070022e-08  -6.90050982369e-06  6.15865379865e-06
7.73095591886  5.68365808332  3.1435107671  m  1  1  1  v  -3.58965021797e-05  -5.97242840941e-06  -2.11758762705e-07
7.78881157963  5.75330611356  7.58530274751  m  1  1  1  v  2.34993472503e-05  2.34035127965e-05  -3.99428281672e-05
3.30757652566  3.38374228271  1.01561493779  m  1  1  1  v  4.81841960591e-05  1.20144715974e-05  -1.56858076568e-06
3.3481951079  3.47188425019  5.45472462633  m  1  1  1  v  4.06927322086e-06  -1.6765463499e-05  2.32956136015e-05
3.23733296047  7.82223286849  0.959423010908  m  1  1  1  v  -3.95542596574e-06  4.13295679698e-05  -7.14952199395e-06
3.29704117948  7.87153470761  5.41427071959  m  1  1  1  v  1.46951061928e-05  -3.1339250761e-05  -2.41910611794e-05
7.72892880565  3.44465429093  0.957243166706  m  1  1  1  v  -6.47526364639e-06  -1.96149755154e-05  -2.81589208966e-05
7.79689778849  3.49408999108  5.39839492847  m  1  1  1  v  6.34691779131e-06  2.19435895493e-05  -9.08215779425e-06
7.69204787218  7.87193055267  0.903972749439  m  1  1  1  v  -9.59226192736e-06  -1.59733164086e-05  -4.43537373568e-05
7.733813497  7.92873474683  5.34266629761  m  1  1  1  v  -5.22182108639e-07  -1.40244338753e-05  3.22663412498e-05
1.10733868353  1.14310608353  1.08017810629  m  1  1  1  v  -3.92118564325e-06  5.45610148414e-05  -4.34923931481e-07
1.15676231836  1.2143311932  5.50646607918  m  1  1  1  v  -2.20090657927e-05  -5.3545044529e-07  1.69975370252e-05
1.05734503788  5.56465406098  1.02127267757  m  1  1  1  v  2.00978039164e-07  6.24659718675e-06  -2.38537202989e-05
1.11051963296  5.6235084589  5.44059044437  m  1  1  1  v  1.69819284491e-05  3.52999992801e-05  -3.60001398044e-05
5.56350963361  1.20444031721  1.02132360063  m  1  1  1  v  4.89594820294e-06  -2.0523317423e-05  -5.42088695133e-06
5.6004678915  1.25122215722  5.4524292208  m  1  1  1  v  1.76307795907e-05  2.66566218539e-05  -1.40513262844e-05
5.47898026275  5.61376926833  0.964905906014  m  1  1  1  v  -1.39452949617e-05  1.09830283351e-05  -2.84603737904e-05
5.55500199452  5.6845678529  5.40611761938  m  1  1  1  v  2.5907775622e-05  1.544598437e-05  1.18033720827e-06
1.11367196104  3.38826014589  3.27092297106  m  1  1  1  v  2.15920527027e-06  2.49228455946e-05  -4.20510260939e-06
1.16901928592  3.43468661986  7.70682398398  m  1  1  1  v  1.17880211309e-05  -7.82244256971e-06  2.94142589223e-05
1.05190713888  7.82446525552  3.20023311242  m  1  1  1  v  -1.17780439914e-06  1.69858240707e-05  -3.73185656953e-06
1.1065635249  7.88177563968  7.64870586072  m  1  1  1  v  -4.55736898023e-05  5.10088508439e-05  -2.49860542668e-05
5.5286578362  3.43875718088  3.2042464104  m  1  1  1  v  1.22971176603e-05  -3.47424892603e-05  2.40722837765e-05
5.60666805901  3.49778419809  7.63097639254  m  1  1  1  v  -2.49934501961e-05  -5.18425507666e-06  -3.9190123572e-05
5.46788224367  7.87398195955  3.14262188281  m  1  1  1  v  -2.88503001617e-05  -1.29233618409e-05  3.42987239032e-05
5.55178248258  7.94136068006  7.58973006852  m  1  1  1  v  -6.06606577587e-05  1.41101308693e-06  3.926419669e-05

C #label
0 #magnetism
32 #number of atoms
0.403225334477  0.346529825386  8.73309966485  m  1  1  1  v  5.14033805791e-05  -3.53975179349e-05  5.01615598597e-05
0.224474781868  0.19186537544  4.31417588527  m  1  1  1  v  -3.49564946104e-05  -2.72899728935e-05  -3.96639917282e-05
0.334411819673  4.79712750145  8.6924588222  m  1  1  1  v  1.11855563644e-05  -5.54331374466e-05  -2.85202011965e-05
0.173435933372  4.61911246174  4.25449588942  m  1  1  1  v  1.02670149018e-05  -1.13812066724e-05  9.17421495083e-06
4.68094444536  0.286763879435  8.81159799312  m  1  1  1  v  -3.4564990281e-05  2.16206945678e-05  -2.69083881351e-05
4.26105955183  9.18046438747  4.37966519227  m  1  1  1  v  -6.61145009469e-06  -2.37718539561e-05  -2.21947894974e-05
4.60385240672  4.73644237963  8.74639035059  m  1  1  1  v  2.42805038455e-05  2.72167701778e-05  1.51302756405e-06
4.44182405361  4.55292345576  4.31399002072  m  1  1  1  v  8.7689095425e-07  2.86096704786e-05  4.79244357726e-05
0.17352363639  2.37859741322  2.07000533145  m  1  1  1  v  -6.32455245672e-06  -2.95111270991e-05  -7.52984863861e-06
0.210339372671  2.41530563  6.51176475655  m  1  1  1  v  4.28953101311e-05  1.90035897295e-05  5.74391270615e-05
0.119370956603  6.79902880118  2.01947205601  m  1  1  1  v  5.99544140987e-06  -4.4977418739e-05  -4.45290602256e-05
0.163761944675  6.86642293266  6.44116609122  m  1  1  1  v  -2.17049546518e-05  -7.70098582005e-05  2.80687337577e-05
4.43250042692  2.30606230043  2.10971114248  m  1  1  1  v  7.8077306335e-05  -4.91752671965e-05  1.00554887098e-05
4.48492004118  2.36793416525  6.56349287024  m  1  1  1  v  -3.2330219295e-05  9.54760314657e-06  6.06049947329e-05
4.38155443388  6.73792353117  2.06016210884  m  1  1  1  v  1.09070153235e-08  4.06399991487e-05  5.07395758176e-05
4.43473424846  6.80355494536  6.49647152672  m  1  1  1  v  1.92861628598e-05  4.80724403036e-06  9.74149433452e-07
2.01011254641  9.11795152888  2.19537765223  m  1  1  1  v  7.28418113835e-05  7.96953246256e-07  -1.48459162896e-05
2.06743945801  9.1991685749  6.62919413832  m  1  1  1  v  5.35786845957e-06  3.08828604155e-05  -4.98106218971e-05
2.19675730771  4.49352110041  2.13747351104  m  1  1  1  v  1.5888781866e-05  -4.7517400958e-05  4.30355136038e-05
2.24851896344  4.55559148725  6.55375218506  m  1  1  1  v  -4.84089564358e-05  -2.56876038298e-05  -4.50283348848e-05
6.67742224975  0.114767354492  2.13658209513  m  1  1  1  v  -3.26623807208e-05  9.87912378403e-06  -4.73535894507e-05
6.73804007608  0.185222499574  6.54492994348  m  1  1  1  v  1.72878384077e-05  2.54460938929e-06  1.72216041491e-05
6.64407457016  4.54875083149  2.0669550649  m  1  1  1  v  -7.52639675946e-05  1.62555048001e-05  1.16192960044e-05
6.68273992268  4.61393878497  6.50425720414  m  1  1  1  v  -3.08144377278e-05  -2.69444770293e-05  9.29187560716e-05
2.41347842015  2.4753984163  8.80701271692  m  1  1  1  v  1.77852848625e-05  -7.08398904615e-07  -1.82397431004e-05
2.25421959052  2.30482598035  4.36646632633  m  1  1  1  v  2.79222341792e-05  -6.29508099695e-05  3.99229741533e-05
2.37116774477  6.9112319001  8.73291281848  m  1  1  1  v  1.61708984036e-05  -1.70515722088e-05  7.68769641182e-05
2.19193474388  6.72889259269  4.33294103717  m  1  1  1  v  -1.54466266158e-05  -4.75494084166e-06  -7.56634806296e-05
6.85650064107  2.55131950439  8.74722563099  m  1  1  1  v  1.4387864644e-05  -3.11479706246e-05  3.06544237109e-06
6.68005636431  2.36014727926  4.31979529911  m  1  1  1  v  -2.4696192286e-05  -2.63961180814e-05  6.35710686503e-05
6.79882466199  6.97523072911  8.68794953931  m  1  1  1  v  4.6622299377e-05  4.52199978439e-05  -2.14374462784e-05
6.62613001675  6.79975697972  4.24923201489  m  1  1  1  v  -4.9160368437e-05  5.45753590777e-05  5.97246082081e-05
