ATOMIC_SPECIES
Si 28.085 Si_ONCV_PBE-1.0.upf
C 12.011 C_ONCV_PBE-1.0.upf

LATTICE_CONSTANT
1.8897261254578281

LATTICE_VECTORS
8.83209416288141 0.0 0.0 
-0.029825078165764084 8.652147999487099 0.0 
-0.1682940615575742 0.033594276370087495 8.999008524234327 

ATOMIC_POSITIONS
Cartesian    # Cartesian(Unit is LATTICE_CONSTANT)
Si
0.0
32
3.293160614393 1.130822059231 3.360439688814 1 1 1
3.250766155398 1.127778260188 7.794473048283 1 1 1
3.285403857661 5.559613724163 3.352858409743 1 1 1
3.232816236075 5.566209495392 7.778990715212 1 1 1
7.732961125270 1.139149833727 3.398481980797 1 1 1
7.688843489571 1.130691035511 7.834072966103 1 1 1
7.719559186090 5.557580825191 3.391028578815 1 1 1
7.677429467513 5.575582933831 7.820167573863 1 1 1
3.313179580098 3.337088475606 1.139350011878 1 1 1
3.259609298040 3.356419620898 5.568554302929 1 1 1
3.296594676619 7.769654629043 1.115798263627 1 1 1
3.261073362518 7.775412193658 5.572138832686 1 1 1
7.749775794550 3.347554678447 1.170400909135 1 1 1
7.704939078488 3.349019658355 5.617456079796 1 1 1
7.737382411589 7.778336021022 1.166467937769 1 1 1
7.693298065241 7.784227395313 5.599153636727 1 1 1
1.094560032737 1.111556202988 1.115299822628 1 1 1
1.051373822061 1.123022156834 5.551828706575 1 1 1
1.091384896902 5.546693818740 1.105655425102 1 1 1
1.053014488584 5.547385071111 5.532437621481 1 1 1
5.535718827525 1.118379851881 1.157006051225 1 1 1
5.486127374198 1.129107131831 5.597137658219 1 1 1
5.515680373217 5.547016597644 1.149598514475 1 1 1
5.485110490878 5.560144425365 5.589774999605 1 1 1
1.068464444110 3.328205367992 3.323115919463 1 1 1
1.028201317993 3.336055033243 7.774335640779 1 1 1
1.064004488156 7.781074218425 3.315051928715 1 1 1
1.018609545602 7.782436066665 7.757804818859 1 1 1
5.501219087112 3.337775417906 3.366522553301 1 1 1
5.469474848330 3.345869556537 7.806110374555 1 1 1
5.491045839348 7.773580939028 3.356159314519 1 1 1
5.454375788503 7.790228841120 7.806578267477 1 1 1
C
0.0
32
8.869589153947 0.010816068606 0.082586940288 1 1 1
8.828547496078 0.032813503758 4.519941906199 1 1 1
8.861996584848 4.460978216888 0.078929929035 1 1 1
8.827243691094 4.460857749666 4.516799781267 1 1 1
4.439031119245 0.005775815475 0.046548858592 1 1 1
4.393655627189 0.017563980337 4.474392208843 1 1 1
4.425985798643 4.448208632758 0.037941421493 1 1 1
4.384333979825 4.453330809878 4.467788527545 1 1 1
8.843019591306 2.241125592500 2.291761607139 1 1 1
8.797502367913 2.244302891713 6.737478935121 1 1 1
8.848348949987 6.665312984804 2.293118621600 1 1 1
8.796818266708 6.689775626828 6.720908563399 1 1 1
4.420022765679 2.228380040789 2.254213540371 1 1 1
4.368050394831 2.238910746410 6.695085782320 1 1 1
4.402760118207 6.664954196988 2.248217046838 1 1 1
4.353690868919 6.675930852036 6.677943145763 1 1 1
2.193265858849 0.006903186598 2.245317559457 1 1 1
2.155016210307 0.023556966713 6.675504153622 1 1 1
2.193673243257 4.446523098708 2.236004328193 1 1 1
2.144324101844 4.462768073329 6.662058480389 1 1 1
6.628329134067 0.014224407156 2.286983994510 1 1 1
6.586051223015 0.036230627213 6.709996699230 1 1 1
6.631173121081 4.446684054723 2.272022322842 1 1 1
6.576748743369 4.462471737619 6.706536319777 1 1 1
2.209125102767 2.214007943155 0.018925794957 1 1 1
2.180654152876 2.227557369043 4.449789365977 1 1 1
2.208848341885 6.653272844929 0.000316798436 1 1 1
2.164552814257 6.661075551655 4.451775850783 1 1 1
6.649895855943 2.240384410822 0.065830193654 1 1 1
6.609958651328 2.235121041033 4.497632125639 1 1 1
6.645698918817 6.665566808098 0.051705250225 1 1 1
6.597809628265 6.673662058111 4.486487634001 1 1 1

NUMERICAL_ORBITAL
Si_gga_9au_100Ry_3s3p2d.orb
C_gga_9au_100Ry_3s3p2d.orb
