ATOMIC_SPECIES
Si 28.085 Si_ONCV_PBE-1.0.upf upf201
C 12.011 C_ONCV_PBE-1.0.upf upf201

NUMERICAL_ORBITAL
Si_gga_9au_100Ry_3s3p2d.orb
C_gga_9au_100Ry_3s3p2d.orb

LATTICE_CONSTANT
1.88972612546

LATTICE_VECTORS
8.89603128254 0 0 #latvec1
0.0460327946656 8.67462407825 0 #latvec2
-0.263732623565 -0.260603738607 8.95658690343 #latvec3

ATOMIC_POSITIONS
Cartesian

Si #label
0 #magnetism
32 #number of atoms
3.25134622243  1.03889287561  3.37105952501  m  1  1  1  v  -0.000160950944607  -4.15514285819e-05  0.000125117402643
3.17375090798  0.99905026105  7.74771783491  m  1  1  1  v  -4.41360594203e-05  4.6075506178e-05  -0.000162264741795
3.26082459917  5.4134250852  3.42007552908  m  1  1  1  v  0.000240624659822  -2.85204041822e-05  -0.00023418286162
3.17799299097  5.36444630204  7.83226309076  m  1  1  1  v  -0.000202797332584  -7.29200668509e-05  4.3984821857e-05
7.62584879567  1.03029986581  3.41643235406  m  1  1  1  v  2.08730144817e-05  7.15317725015e-05  -5.6640622909e-05
7.5781214685  0.955806781683  7.83189081024  m  1  1  1  v  0.000151393537121  -0.000245380833015  9.41315438735e-05
7.63511710974  5.41350692135  3.49862005013  m  1  1  1  v  0.000155432118977  -0.000170912259817  -0.000181361585377
7.60063618785  5.36355983804  7.84223336089  m  1  1  1  v  0.000140421737351  0.000131540368619  -2.80915952836e-05
3.27545654604  3.26641577994  1.20914357436  m  1  1  1  v  -0.000238336986423  0.000201999546499  0.000132686977082
3.21875329286  3.21060519705  5.59814332186  m  1  1  1  v  5.04077573476e-05  -0.000156734792095  0.000161598444344
3.29438479175  7.64692110166  1.25740470735  m  1  1  1  v  0.000156257582285  -1.24133383707e-05  -0.000234556704859
3.26373846113  7.59272888226  5.64270006603  m  1  1  1  v  -6.95592706132e-05  -3.61099596141e-05  0.000156511316402
7.668079606  3.26365151473  1.2303599801  m  1  1  1  v  7.06717050622e-05  -0.000102757252535  -0.000181718512245
7.60954247933  3.18542901844  5.65452775519  m  1  1  1  v  0.000154599361336  3.35281367583e-05  8.02910817768e-05
7.67196549448  7.63421295331  1.33783404475  m  1  1  1  v  -0.000128674458805  -0.000316323029437  9.58208849773e-05
7.65188233299  7.58817946811  5.73021157682  m  1  1  1  v  0.00012898615437  0.000159564442606  -0.000147553480229
1.10047436543  1.0930544157  1.12728725258  m  1  1  1  v  0.000131462862432  1.3716205428e-05  5.19376988477e-05
1.00115890595  1.03991538893  5.53142850628  m  1  1  1  v  -3.34454827651e-05  0.000154506956034  -0.000129416119711
1.07917485771  5.4739113237  1.20457853727  m  1  1  1  v  -0.0001151254592  -8.46628267685e-05  7.00189756719e-05
1.02842618808  5.40367505078  5.58993565198  m  1  1  1  v  2.54740241871e-05  -4.12751318839e-05  -8.41995213868e-05
5.47021115812  1.0612145935  1.1939048942  m  1  1  1  v  -0.00011159118277  0.000109621415305  0.000240210602456
5.42405293259  0.998099100662  5.5668666169  m  1  1  1  v  1.62579049448e-05  4.58270605037e-05  -8.2059203672e-05
5.48132191456  5.45501260658  1.23870912365  m  1  1  1  v  0.000207151174032  9.04562886036e-05  -0.000200681782938
5.44181048192  5.42847211226  5.65809151718  m  1  1  1  v  6.59824618964e-06  -9.90895555899e-05  0.000159091878623
1.0425000495  3.25754420303  3.35496634672  m  1  1  1  v  -0.000241786694406  7.17837657168e-05  0.000218862684016
0.989727940355  3.18333996097  7.7625732521  m  1  1  1  v  -0.000116664158714  -0.00015630749396  0.000102940823054
1.05484574322  7.64633119877  3.39929117633  m  1  1  1  v  -0.00020367562592  -5.97833078282e-06  7.1254016965e-05
1.02978403926  7.57125933754  7.81940837579  m  1  1  1  v  0.000151384545404  -2.51863101027e-05  -8.35118999308e-05
5.45880588802  3.21572207523  3.42431588591  m  1  1  1  v  4.31454171344e-05  -9.94004944059e-05  0.000124668660722
5.37372025454  3.15154091517  7.80210038855  m  1  1  1  v  -0.000220890449312  -6.3768414891e-05  0.000125368514741
5.46360289901  7.61831038841  3.46810601893  m  1  1  1  v  4.52870557689e-05  0.000137501370578  0.000163332422159
5.3945218933  7.54650376621  7.86240633073  m  1  1  1  v  -4.98117393762e-05  -0.000170135807226  -8.13501678725e-05

C #label
0 #magnetism
32 #number of atoms
8.82466279722  0.020114308966  0.113859728435  m  1  1  1  v  -0.000189332544994  0.000115738402844  -7.74119567866e-05
8.73713452878  -0.0676939442938  4.52046834738  m  1  1  1  v  -9.00334671085e-06  0.00015145391036  -0.000139234322874
8.80050454966  4.37124271427  0.18284816908  m  1  1  1  v  -0.000202324355155  0.000323111857857  -0.000111539671813
8.75360317318  4.2899090011  4.59071863409  m  1  1  1  v  5.64070849005e-05  0.00015848052292  0.00023168736642
4.37322938228  0.0202961422452  0.0568748851302  m  1  1  1  v  0.000159724701635  0.000406241209589  0.000255057366743
4.33502326343  -0.0532490519171  4.48029105454  m  1  1  1  v  0.000203582971133  0.000166686077472  0.000304954321067
4.39458021813  4.38870641484  0.0979026589998  m  1  1  1  v  0.000100069737587  -0.000281430918605  6.75247085363e-05
4.33024706068  4.29540931579  4.52283927816  m  1  1  1  v  -0.000214291699706  -9.75846387391e-05  2.86469609886e-05
8.75405339326  2.15004106213  2.36121092093  m  1  1  1  v  -5.754740972e-05  -7.85054847731e-05  0.000226368849246
8.68636730287  2.07267763084  6.73257504759  m  1  1  1  v  0.000226550424434  -0.000141770293404  4.54567853147e-05
8.77581475171  6.52006726937  2.42315057802  m  1  1  1  v  4.7060645203e-05  0.000149635238406  -0.000403309087146
-0.150411691936  6.46852274828  6.81668074288  m  1  1  1  v  1.80006540684e-05  -0.000378380187847  0.000216852542819
4.34231003368  2.12562285794  2.30510439311  m  1  1  1  v  -0.000129358420915  -0.000110788644293  3.18123954679e-05
4.29551320705  2.06844904476  6.63516473302  m  1  1  1  v  -0.000176709757662  -7.2415919881e-05  -0.000263933669353
4.38217106546  6.51600544533  2.36945699693  m  1  1  1  v  -0.00042205237968  6.97714821333e-05  2.63156305459e-05
4.2990134472  6.47568885076  6.74971333246  m  1  1  1  v  0.000366877878762  -0.000207763204321  0.00019144887741
2.15964873777  -0.0374297395092  2.26491358599  m  1  1  1  v  8.68369268376e-05  0.00044068419854  0.000430064961621
2.07710815756  -0.0475661676113  6.61933075515  m  1  1  1  v  -0.000279633044254  0.000148543914886  -0.000166396876267
2.15737741308  4.3536745361  2.32930594872  m  1  1  1  v  -0.000239120232757  4.6772583804e-05  0.000170904171819
2.12689099583  4.30009183644  6.6584124349  m  1  1  1  v  6.04046757923e-06  0.000210455747614  -0.000406832903053
6.56238180833  -0.00840387240934  2.29839298687  m  1  1  1  v  1.24275653705e-05  0.000281509980139  0.000262348543607
6.50189893752  -0.108326038387  6.68453666567  m  1  1  1  v  0.000146265793441  -0.000203151898896  -0.000101461978477
6.58074034038  4.33667069685  2.35773209288  m  1  1  1  v  -5.79370010787e-05  8.97000096406e-05  0.000194698316581
6.47914983612  4.27669095381  6.75629212457  m  1  1  1  v  1.81094468595e-05  -9.96178011969e-05  0.000104081650676
2.19974130609  2.20300511123  0.0334030962295  m  1  1  1  v  -0.000281278712351  9.23709738465e-06  -0.000374450160963
2.15980031698  2.12521626718  4.45285785929  m  1  1  1  v  0.000203858624697  -0.000154517213062  -2.14523336594e-05
2.21648284004  6.57939493696  0.0950132012503  m  1  1  1  v  -5.97389467749e-05  -5.98327809581e-06  -0.000203915177712
2.14494339684  6.50577297853  4.49789528455  m  1  1  1  v  -0.000193395461086  0.000224500103024  -1.31026558279e-06
6.5842738363  2.16776348861  0.1178705266  m  1  1  1  v  0.000111993381113  1.15637257276e-05  -4.90003880915e-05
6.51543604028  2.10950891914  4.51763150818  m  1  1  1  v  -0.000205971231316  -4.92501838114e-06  0.000253655760726
6.59372020304  6.56782625541  0.18856182315  m  1  1  1  v  -0.000121307425775  0.000104354117305  -8.97339741006e-05
6.54415120761  6.50948388872  4.59896338652  m  1  1  1  v  4.00782181252e-05  0.000275876820589  -0.000295125375896
