ATOMIC_SPECIES
Si 28.085 Si_ONCV_PBE-1.0.upf upf201
C 12.011 C_ONCV_PBE-1.0.upf upf201

NUMERICAL_ORBITAL
Si_gga_9au_100Ry_3s3p2d.orb
C_gga_9au_100Ry_3s3p2d.orb

LATTICE_CONSTANT
1.88972612546

LATTICE_VECTORS
8.89603128254 0 0 #latvec1
0.0460327946656 8.67462407825 0 #latvec2
-0.263732623565 -0.260603738607 8.95658690343 #latvec3

ATOMIC_POSITIONS
Cartesian

Si #label
0 #magnetism
32 #number of atoms
3.24709369276  1.03422516959  3.36045611976  m  1  1  1  v  3.97526665152e-05  -6.36808244194e-05  6.67369800427e-06
3.18288541948  0.994974615515  7.74696928762  m  1  1  1  v  -4.33400651798e-05  0.000102248790362  0.000105140377265
3.24467366239  5.42104000214  3.42495399855  m  1  1  1  v  8.42886537657e-05  -9.6402434682e-05  5.04460246796e-05
3.18836897142  5.36397372567  7.83618009515  m  1  1  1  v  -0.000179834253644  6.06834746031e-05  6.86980231302e-05
7.63560595774  1.02876546357  3.41578916402  m  1  1  1  v  -5.33784037012e-05  -2.77064075692e-05  5.10409757297e-06
7.58502634435  0.959665483941  7.8200465449  m  1  1  1  v  5.20040683366e-05  -3.83545448956e-05  8.48380964126e-05
7.63896728165  5.42465319438  3.50122824065  m  1  1  1  v  -9.09887379201e-05  -7.53137927826e-05  0.000110826919494
7.59739875073  5.35836037108  7.85454469552  m  1  1  1  v  0.000195354179747  9.90288525461e-05  -9.62020817075e-05
3.28098330536  3.25785044602  1.20655435952  m  1  1  1  v  -0.000162918381325  -0.000168569007182  -4.19926785269e-05
3.219464786  3.21393337152  5.58477483707  m  1  1  1  v  -2.58834417062e-06  -4.85668411031e-05  5.46227071264e-06
3.30363246924  7.65311712782  1.25210726139  m  1  1  1  v  -0.000117350236598  -4.74706994198e-05  0.000132675593795
3.24806668273  7.58982377162  5.63448710919  m  1  1  1  v  0.000103388379374  -6.50403256714e-05  2.68645911968e-05
7.67152496284  3.26018121403  1.24761295985  m  1  1  1  v  -5.68875991951e-05  2.29252598918e-05  -6.92304608243e-05
7.61046734874  3.18397482563  5.65048626306  m  1  1  1  v  -1.90372199424e-05  8.26351895048e-05  1.73470845572e-05
7.68546047781  7.65418811692  1.33248086033  m  1  1  1  v  5.10434033301e-05  -2.55356737739e-05  -4.78746814246e-05
7.64540439863  7.58380253482  5.73114933646  m  1  1  1  v  3.77080393177e-05  4.76543569833e-05  -8.92607316518e-05
1.08624206972  1.08430339506  1.12846154133  m  1  1  1  v  4.82894094113e-05  0.000216788202933  0.000111148952332
1.01943296688  1.03148045075  5.53079954424  m  1  1  1  v  -6.40169219756e-05  0.000191140429263  -2.402825797e-06
1.10593383499  5.47806304324  1.20457233535  m  1  1  1  v  -0.000217854202251  6.4413481713e-06  4.74392088896e-05
1.03121990357  5.40330388308  5.59748573847  m  1  1  1  v  -0.000226624004617  1.50712603001e-05  -4.24627515282e-06
5.46537492418  1.05473626818  1.18779475895  m  1  1  1  v  4.03039011756e-05  -9.97621183339e-05  -2.57290816275e-05
5.41353457869  1.00756061023  5.58432446456  m  1  1  1  v  -2.2703244638e-05  -2.2660080156e-05  -6.53318828182e-05
5.47914507857  5.45051076106  1.24654567352  m  1  1  1  v  1.56178212319e-05  -8.2876207865e-05  -6.09589682922e-05
5.43825567253  5.42138028047  5.64555723881  m  1  1  1  v  -4.76018382755e-05  0.000111293530069  3.93764277388e-05
1.05542846249  3.24793411565  3.36149490091  m  1  1  1  v  -5.63017750477e-05  0.000155435692044  5.00410728864e-05
0.9974397694  3.19029523342  7.76475889065  m  1  1  1  v  -7.64202395801e-05  -7.55714904089e-05  -6.99684642062e-05
1.06494701993  7.64269655387  3.41431154137  m  1  1  1  v  -0.000103699679262  -2.15221099769e-05  -0.000132273340479
1.02307880399  7.56404506783  7.81902043144  m  1  1  1  v  -2.34250371205e-05  -5.08706172161e-05  9.87464818893e-05
5.45866928614  3.22415198179  3.42462083721  m  1  1  1  v  4.8934045895e-06  2.05004495666e-05  -0.000157922139515
5.38344530579  3.15745432543  7.8049474179  m  1  1  1  v  5.56835746102e-05  3.85328052204e-05  -8.90056436723e-05
5.45880425365  7.62591767533  3.46688892095  m  1  1  1  v  8.84569565106e-05  4.1040262708e-05  -3.34475322316e-05
5.39179658857  7.54958303417  7.87184826772  m  1  1  1  v  4.09744905741e-05  -0.000212383036443  -3.05757465319e-05

C #label
0 #magnetism
32 #number of atoms
8.79674263941  0.00327844665988  0.122576612572  m  1  1  1  v  1.64458400938e-05  0.000133361327941  8.8742199883e-05
8.71082362784  -0.0765399070375  4.5184851305  m  1  1  1  v  0.000278074295564  7.4333322597e-05  -3.07751504674e-06
8.79680801155  4.36608569248  0.18816925971  m  1  1  1  v  2.29970002209e-05  2.68484713512e-05  -0.000227662517296
8.71832387546  4.30780996007  4.588082576  m  1  1  1  v  8.23648127849e-05  -8.26524469185e-05  9.97886685935e-05
4.44459307598  8.67288282578  0.0536229359205  m  1  1  1  v  -0.000161000044505  0.000204710777841  0.000122543455729
4.34168460588  -0.0596892932203  4.47952502706  m  1  1  1  v  -5.89454840914e-05  -0.000146718623446  0.000142440768599
4.40625061216  4.3763678344  0.111956527191  m  1  1  1  v  -0.000233410968313  -0.000148592075343  -0.000288923479585
4.33679413595  4.30649938327  4.52939351282  m  1  1  1  v  -0.000132155308553  0.000293834886002  0.000189633188946
8.75962493389  2.14573547596  2.36606792364  m  1  1  1  v  6.1015733848e-05  3.20979087043e-05  -8.40957767663e-05
8.69486946532  2.07659188378  6.74898192424  m  1  1  1  v  2.39610074079e-05  0.000109582042473  1.97387104587e-06
8.75480703105  6.524600565  2.42136777651  m  1  1  1  v  -2.22134261704e-05  7.24323817732e-05  9.54095963324e-05
8.71949851611  6.45940486043  6.79812974095  m  1  1  1  v  9.42698715883e-05  -4.39082739705e-05  0.000132624385194
4.34968218992  2.14323485947  2.29357806291  m  1  1  1  v  5.15072311515e-05  -9.8507551717e-05  0.000158557296155
4.30697487894  2.10288216719  6.66634872185  m  1  1  1  v  -0.000126929965101  -9.96681379107e-05  -0.000258010988838
4.38160476819  6.52771669458  2.3620833848  m  1  1  1  v  2.01626377037e-05  -0.000217132491573  0.000212509968024
4.29781751021  6.48255862381  6.74667031752  m  1  1  1  v  -0.000176522467254  -0.000218624560877  -0.000326666396431
2.1615469309  -0.0322548717653  2.23838631195  m  1  1  1  v  -0.000115085329163  -4.93873577252e-05  -8.59287214035e-05
2.07689411326  -0.077624374722  6.63349389765  m  1  1  1  v  2.97500668608e-05  0.000142472728482  -0.000168585851495
2.1655195679  4.34393674713  2.29883646999  m  1  1  1  v  -0.000103905622206  -0.000220615471664  0.000172177679654
2.12939090397  4.29381323172  6.674658315  m  1  1  1  v  -0.000191028681992  9.88450350871e-05  -4.92925662211e-05
6.55334820946  -0.0255985681486  2.30360112721  m  1  1  1  v  -0.00018658858929  6.40618485813e-05  4.10183575514e-05
6.49552603099  -0.118160180738  6.6880514187  m  1  1  1  v  -7.81946891865e-05  0.000139466293528  3.16487640948e-05
6.57943753286  4.32795465333  2.33958999018  m  1  1  1  v  0.000135850082181  0.000104687373845  -0.000110004398663
6.49232531192  4.27174057168  6.74692030173  m  1  1  1  v  -4.84736713275e-05  0.000331650242028  0.00014162484212
2.19781494456  2.18276463073  0.0525184220456  m  1  1  1  v  5.87487263861e-05  3.9259706348e-05  -0.000122397154829
2.14181394393  2.13467403689  4.44432839101  m  1  1  1  v  -0.000114455144359  -0.000201439209133  9.95324525028e-05
2.22319473147  6.57570417241  0.133404943355  m  1  1  1  v  -5.98490595929e-05  0.000107532061707  -0.000120494616041
2.14669595234  6.50604105833  4.51235026595  m  1  1  1  v  0.000114097265023  0.000123361139522  8.53030759182e-05
6.58997145897  2.18567286761  0.123984460001  m  1  1  1  v  -8.83815035143e-05  1.20913925488e-05  0.000131009748944
6.52323133335  2.1020251615  4.51961090251  m  1  1  1  v  7.38938367914e-05  -0.000160416829755  -3.94983692254e-05
6.60521521844  6.5743049925  0.195649958173  m  1  1  1  v  1.45628785575e-05  7.9631007232e-05  -0.000136724819728
6.54432050731  6.51544953286  4.58433079645  m  1  1  1  v  -2.10962371292e-05  5.22801059286e-05  2.80269178913e-05
