ATOMIC_SPECIES
Si 28.085 Si_ONCV_PBE-1.0.upf upf201
C 12.011 C_ONCV_PBE-1.0.upf upf201

NUMERICAL_ORBITAL
Si_gga_9au_100Ry_3s3p2d.orb
C_gga_9au_100Ry_3s3p2d.orb

LATTICE_CONSTANT
1.88972612546

LATTICE_VECTORS
8.89603128254 0 0 #latvec1
0.0460327946656 8.67462407825 0 #latvec2
-0.263732623565 -0.260603738607 8.95658690343 #latvec3

ATOMIC_POSITIONS
Cartesian

Si #label
0 #magnetism
32 #number of atoms
3.25038734084  1.03804980547  3.35899871899  m  1  1  1  v  2.01770079589e-05  -6.57608105145e-06  1.39095932127e-05
3.18058504547  0.989114835825  7.74176080466  m  1  1  1  v  8.30615591861e-06  -1.58144801691e-05  2.77912654796e-05
3.25043149833  5.42497656963  3.42481279441  m  1  1  1  v  -5.11394045277e-05  1.26380563744e-05  -1.14840056858e-05
3.19729384924  5.36248655351  7.8277034605  m  1  1  1  v  4.96141886441e-05  -5.51006930217e-05  4.26432159899e-06
7.63729357195  1.0203215298  3.42512501345  m  1  1  1  v  1.3981931597e-05  3.70634720726e-05  -2.74168264091e-05
7.58431802908  0.966578795764  7.82213739551  m  1  1  1  v  -7.73241070022e-08  -6.90050982369e-06  6.15865379865e-06
7.6412930862  5.42295735285  3.4987940208  m  1  1  1  v  -3.58965021797e-05  -5.97242840941e-06  -2.11758762705e-07
7.59325039755  5.34856654498  7.85581396403  m  1  1  1  v  2.34993472503e-05  2.34035127965e-05  -3.99428281672e-05
3.29114820091  3.2679084507  1.20230203105  m  1  1  1  v  4.81841960591e-05  1.20144715974e-05  -1.56858076568e-06
3.21613474474  3.21467391097  5.5943455576  m  1  1  1  v  4.06927322086e-06  -1.6765463499e-05  2.32956136015e-05
3.30639971875  7.65913215541  1.25374580468  m  1  1  1  v  -3.95542596574e-06  4.13295679698e-05  -7.14952199395e-06
3.24311610394  7.59672654213  5.63896377368  m  1  1  1  v  1.46951061928e-05  -3.1339250761e-05  -2.41910611794e-05
7.67350622215  3.25974124526  1.24405671611  m  1  1  1  v  -6.47526364639e-06  -1.96149755154e-05  -2.81589208966e-05
7.61167765672  3.18256977671  5.65400989714  m  1  1  1  v  6.34691779131e-06  2.19435895493e-05  -9.08215779425e-06
7.67956808619  7.65906612393  1.33947444391  m  1  1  1  v  -9.59226192736e-06  -1.59733164086e-05  -4.43537373568e-05
7.63353178769  7.58732720059  5.73226945297  m  1  1  1  v  -5.22182108639e-07  -1.40244338753e-05  3.22663412498e-05
1.08723261059  1.07645909852  1.12269065341  m  1  1  1  v  -3.92118564325e-06  5.45610148414e-05  -4.34923931481e-07
1.02667143472  1.02197120107  5.52311275411  m  1  1  1  v  -2.20090657927e-05  -5.3545044529e-07  1.69975370252e-05
1.11095427373  5.47781021958  1.19782723429  m  1  1  1  v  2.00978039164e-07  6.24659718675e-06  -2.38537202989e-05
1.03860446858  5.39443699367  5.5901790472  m  1  1  1  v  1.69819284491e-05  3.52999992801e-05  -3.60001398044e-05
5.46353252668  1.0612009835  1.19396095212  m  1  1  1  v  4.89594820294e-06  -2.0523317423e-05  -5.42088695133e-06
5.41199640917  0.999695743646  5.58428940807  m  1  1  1  v  1.76307795907e-05  2.66566218539e-05  -1.40513262844e-05
5.47872878927  5.45650023761  1.24750375683  m  1  1  1  v  -1.39452949617e-05  1.09830283351e-05  -2.84603737904e-05
5.44494730975  5.41584903521  5.65330248897  m  1  1  1  v  2.5907775622e-05  1.544598437e-05  1.18033720827e-06
1.05643299936  3.24781690773  3.35294136231  m  1  1  1  v  2.15920527027e-06  2.49228455946e-05  -4.20510260939e-06
0.998629248159  3.19011910243  7.75330900651  m  1  1  1  v  1.17880211309e-05  -7.82244256971e-06  2.94142589223e-05
1.0733008913  7.64066987719  3.41163559317  m  1  1  1  v  -1.17780439914e-06  1.69858240707e-05  -3.73185656953e-06
1.01935600701  7.5738582114  7.82002868476  m  1  1  1  v  -4.55736898023e-05  5.10088508439e-05  -2.49860542668e-05
5.45366835774  3.22454397894  3.42331929546  m  1  1  1  v  1.22971176603e-05  -3.47424892603e-05  2.40722837765e-05
5.38195537814  3.15465080532  7.80644025091  m  1  1  1  v  -2.49934501961e-05  -5.18425507666e-06  -3.9190123572e-05
5.45427151851  7.62190469954  3.47048766594  m  1  1  1  v  -2.88503001617e-05  -1.29233618409e-05  3.42987239032e-05
5.39452124211  7.55171807669  7.87014732812  m  1  1  1  v  -6.06606577587e-05  1.41101308693e-06  3.926419669e-05

C #label
0 #magnetism
32 #number of atoms
8.84192231441  8.66639603708  0.127329270791  m  1  1  1  v  5.14033805791e-05  -3.53975179349e-05  5.01615598597e-05
8.71027998783  -0.0865220788424  4.51855497188  m  1  1  1  v  -3.49564946104e-05  -2.72899728935e-05  -3.96639917282e-05
8.80312479189  4.36212283768  0.200346030132  m  1  1  1  v  1.11855563644e-05  -5.54331374466e-05  -2.85202011965e-05
8.72633427877  4.30755177617  4.58856408471  m  1  1  1  v  1.02670149018e-05  -1.13812066724e-05  9.17421495083e-06
4.44929242776  8.66063259535  0.0568403504722  m  1  1  1  v  -3.4564990281e-05  2.16206945678e-05  -2.69083881351e-05
4.34359630445  -0.0701708542144  4.46394627  m  1  1  1  v  -6.61145009469e-06  -2.37718539561e-05  -2.21947894974e-05
4.4154722925  4.37762982992  0.122784832695  m  1  1  1  v  2.42805038455e-05  2.72167701778e-05  1.51302756405e-06
4.33625959241  4.29886648517  4.53523574129  m  1  1  1  v  8.7689095425e-07  2.86096704786e-05  4.79244357726e-05
8.7572364937  2.14209056999  2.36299144582  m  1  1  1  v  -6.32455245672e-06  -2.95111270991e-05  -7.52984863861e-06
8.6911918739  2.07657559637  6.7438241569  m  1  1  1  v  4.28953101311e-05  1.90035897295e-05  5.74391270615e-05
8.75501505099  6.52515244061  2.42804402412  m  1  1  1  v  5.99544140987e-06  -4.4977418739e-05  -4.45290602256e-05
8.70904379161  6.46538091113  6.80527576206  m  1  1  1  v  -2.17049546518e-05  -7.70098582005e-05  2.80687337577e-05
4.35495199822  2.13856005704  2.28823249463  m  1  1  1  v  7.8077306335e-05  -4.91752671965e-05  1.00554887098e-05
4.30710795042  2.08770988909  6.6721663646  m  1  1  1  v  -3.2330219295e-05  9.54760314657e-06  6.06049947329e-05
4.3903237342  6.53898711819  2.37269804342  m  1  1  1  v  1.09070153235e-08  4.06399991487e-05  5.07395758176e-05
4.29629143502  6.48175414272  6.75517265441  m  1  1  1  v  1.92861628598e-05  4.80724403036e-06  9.74149433452e-07
2.17100584598  -0.0410014473336  2.24109294847  m  1  1  1  v  7.28418113835e-05  7.96953246256e-07  -1.48459162896e-05
2.08635362577  -0.0904630479066  6.62390525953  m  1  1  1  v  5.35786845957e-06  3.08828604155e-05  -4.98106218971e-05
2.17017362819  4.34926142884  2.29639915309  m  1  1  1  v  1.5888781866e-05  -4.7517400958e-05  4.30355136038e-05
2.11843870354  4.29204436736  6.68072153853  m  1  1  1  v  -4.84089564358e-05  -2.56876038298e-05  -4.50283348848e-05
6.56323702495  -0.0406559172796  2.2824015076  m  1  1  1  v  -3.26623807208e-05  9.87912378403e-06  -4.73535894507e-05
6.49042358069  -0.114756091857  6.68435745452  m  1  1  1  v  1.72878384077e-05  2.54460938929e-06  1.72216041491e-05
6.56639323612  4.33318884747  2.34672043276  m  1  1  1  v  -7.52639675946e-05  1.62555048001e-05  1.16192960044e-05
6.49791846058  4.26005211537  6.74736817773  m  1  1  1  v  -3.08144377278e-05  -2.69444770293e-05  9.29187560716e-05
2.1910080791  2.18476781963  0.0627973673501  m  1  1  1  v  1.77852848625e-05  -7.08398904615e-07  -1.82397431004e-05
2.13980577702  2.13156559078  4.45364758346  m  1  1  1  v  2.79222341792e-05  -6.29508099695e-05  3.99229741533e-05
2.22503154216  6.57120987885  0.132740559795  m  1  1  1  v  1.61708984036e-05  -1.70515722088e-05  7.68769641182e-05
2.1467736986  6.50658615764  4.51037421734  m  1  1  1  v  -1.54466266158e-05  -4.75494084166e-06  -7.56634806296e-05
6.59161374698  2.17663027383  0.125144748526  m  1  1  1  v  1.4387864644e-05  -3.11479706246e-05  3.06544237109e-06
6.52745537129  2.10477240168  4.52448851217  m  1  1  1  v  -2.4696192286e-05  -2.63961180814e-05  6.35710686503e-05
6.61196038471  6.56249676633  0.198444913224  m  1  1  1  v  4.6622299377e-05  4.52199978439e-05  -2.14374462784e-05
6.5312599415  6.51179445901  4.59260159522  m  1  1  1  v  -4.9160368437e-05  5.45753590777e-05  5.97246082081e-05
