ATOMIC_SPECIES
Si 28.085 Si_ONCV_PBE-1.0.upf
C 12.011 C_ONCV_PBE-1.0.upf

LATTICE_CONSTANT
1.8897261254578281

LATTICE_VECTORS
8.625476620420734 0.0 0.0 
-0.15641014074407378 8.76961924431436 0.0 
-0.08839043471268496 0.24603705756820882 8.921488846972064 

ATOMIC_POSITIONS
Cartesian    # Cartesian(Unit is LATTICE_CONSTANT)
Si
0.0
32
3.301563876494 1.192131716420 3.329804406704 1 1 1
3.277084253558 1.244871467455 7.764774719966 1 1 1
3.256404744719 5.620662295852 3.266827716016 1 1 1
3.230509474331 5.683307641159 7.700292389187 1 1 1
7.740209571598 1.231224538842 3.346006471563 1 1 1
7.713441190511 1.287366541524 7.783472482304 1 1 1
7.696299666435 5.657375591295 3.288131103678 1 1 1
7.672521583960 5.724287101333 7.716510281798 1 1 1
3.292834992687 3.373516132788 1.083240253081 1 1 1
3.262832261004 3.438991875897 5.516369192301 1 1 1
3.250118429841 7.809588678411 1.012167819662 1 1 1
3.230093272043 7.864125734426 5.460254482692 1 1 1
7.727595190178 3.414564760272 1.093551675050 1 1 1
7.704331215730 3.468899808899 5.536603371619 1 1 1
7.686036364233 7.845860287074 1.037869185554 1 1 1
7.664610574285 7.907843193770 5.472788390730 1 1 1
1.092078739548 1.132728662784 1.098396836857 1 1 1
1.071580294603 1.194071315415 5.532142667051 1 1 1
1.056035844101 5.567295788969 1.033845883236 1 1 1
1.036254226710 5.626104302076 5.465288827201 1 1 1
5.531102434852 1.173955951429 1.118634612154 1 1 1
5.506855589188 1.232210165203 5.554059136932 1 1 1
5.486189849354 5.605521958390 1.054396484192 1 1 1
5.468576075135 5.666511525009 5.497564695685 1 1 1
1.057074692243 3.377960196872 3.284186384120 1 1 1
1.042688286722 3.441804597681 7.723564543371 1 1 1
1.026295657885 7.823460644116 3.218934308736 1 1 1
0.998413739015 7.881713162029 7.657105182923 1 1 1
5.490851459856 3.418876875806 3.301736731601 1 1 1
5.481141084514 3.478187491855 7.740019690277 1 1 1
5.454285626331 7.852159755416 3.241326687527 1 1 1
5.433648806519 7.924551893134 7.685736214383 1 1 1
C
0.0
32
8.873197672769 0.080142207846 0.045930563374 1 1 1
8.846908938950 0.147104704136 4.480416580698 1 1 1
8.832535438966 4.521301904871 -0.012950362917 1 1 1
8.812271435867 4.578923269180 4.418840245101 1 1 1
4.443184721810 0.038729958539 0.020969976934 1 1 1
4.413261851458 0.101774316224 4.456625075605 1 1 1
4.393483752305 4.476885074618 -0.040988895832 1 1 1
4.373530426481 4.537388167334 4.395063530162 1 1 1
8.836392780903 2.331802077910 2.223737015007 1 1 1
8.811732223333 2.389765075493 6.667771818305 1 1 1
8.801840805587 6.759842692876 2.170895797526 1 1 1
8.773888654008 6.828923521511 6.599728803581 1 1 1
4.411131784010 2.291843945178 2.211078170338 1 1 1
4.381070754728 2.351355574596 6.647240948807 1 1 1
4.364566576746 6.723039030458 2.145901147495 1 1 1
4.336321790050 6.785978115446 6.577550830073 1 1 1
2.205421974896 0.047421075646 2.228873820531 1 1 1
2.184139858768 0.113177339224 6.662582717800 1 1 1
2.173220842128 4.484527541281 2.170153864449 1 1 1
2.138893174183 4.550525110584 6.597093401486 1 1 1
6.640721172555 0.093185351316 2.258636539546 1 1 1
6.621807591476 0.158355102970 6.683152390724 1 1 1
6.605804990908 4.527208712142 2.189311664911 1 1 1
6.579000355792 4.588732624878 6.624152317067 1 1 1
2.193569339936 2.230356391549 -0.018455429614 1 1 1
2.181790086729 2.292828448845 4.411994107498 1 1 1
2.160838365059 6.671135540839 -0.085171751098 1 1 1
2.139007951474 6.735032144914 4.356883207623 1 1 1
6.627508646009 2.282692993037 0.004933356715 1 1 1
6.614928685573 2.343128269125 4.433844764432 1 1 1
6.592190493862 6.708793745312 -0.055983450742 1 1 1
6.570274904092 6.774859733290 4.375711491364 1 1 1

NUMERICAL_ORBITAL
Si_gga_9au_100Ry_3s3p2d.orb
C_gga_9au_100Ry_3s3p2d.orb
