ATOMIC_SPECIES
Si 28.085 Si_ONCV_PBE-1.0.upf upf201
C 12.011 C_ONCV_PBE-1.0.upf upf201

NUMERICAL_ORBITAL
Si_gga_9au_100Ry_3s3p2d.orb
C_gga_9au_100Ry_3s3p2d.orb

LATTICE_CONSTANT
1.88972612546

LATTICE_VECTORS
9.03227962446 0 0 #latvec1
-4.34248916758 8.29080811539 0 #latvec2
0.07514936354 -0.131814347156 10.077271131 #latvec3

ATOMIC_POSITIONS
Cartesian

Si #label
0 #magnetism
36 #number of atoms
0.0270647765154  1.77611987921  2.55640959821  m  1  1  1  v  2.08222112447e-05  -5.34848695057e-06  1.34555746122e-05
3.18988274832  7.10262187523  2.57310722683  m  1  1  1  v  8.80550339023e-06  -1.47003972316e-05  2.75078094137e-05
-3.01186372018  7.17872933777  2.59613055324  m  1  1  1  v  -5.13704579227e-05  1.41017324051e-05  -1.22500325592e-05
4.73855161522  6.18513148143  5.10437500579  m  1  1  1  v  5.06210832341e-05  -5.44693153308e-05  3.69179263889e-06
1.57279380845  0.84336558723  5.08741349185  m  1  1  1  v  1.45510166814e-05  3.88272604189e-05  -2.83786180457e-05
7.78237827488  0.783343178264  5.04565653846  m  1  1  1  v  3.19016495298e-07  -5.67690194237e-06  5.60940028368e-06
0.0509073012184  1.72518851669  7.64313225554  m  1  1  1  v  -3.59402677604e-05  -4.7374172969e-06  -8.39284815119e-07
3.2206551799  7.07832434764  7.66604192253  m  1  1  1  v  2.41853717426e-05  2.49994627707e-05  -4.10585253683e-05
-2.9814459182  7.13603685376  7.68674731303  m  1  1  1  v  4.91735204922e-05  1.34704857126e-05  -2.21277793633e-06
4.67854852712  6.27140826351  0.107558017311  m  1  1  1  v  4.51656259477e-06  -1.56630651859e-05  2.29569199702e-05
1.5231300537  0.948086103833  0.0933059087888  m  1  1  1  v  -3.60673516164e-06  4.31457733531e-05  -7.86229155721e-06
7.72155259658  0.872713923588  0.0711324217716  m  1  1  1  v  1.52729539727e-05  -3.04159189209e-05  -2.5113218204e-05
-1.49665635379  4.47869336588  2.58191231557  m  1  1  1  v  -6.1575338024e-06  -1.85475888336e-05  -2.91298305641e-05
1.60405662206  4.43337767655  2.56008417485  m  1  1  1  v  6.82219232602e-06  2.35216016119e-05  -9.81867343464e-06
0.0952825572057  7.13861313606  2.58778001504  m  1  1  1  v  -9.31283028812e-06  -1.4861185074e-05  -4.55236308994e-05
6.25932276367  3.48466330916  5.07913961005  m  1  1  1  v  -1.31307426207e-07  -1.28883568417e-05  3.20378699329e-05
3.14852521107  3.50171796529  5.09252251178  m  1  1  1  v  -3.57207413218e-06  5.65397935133e-05  -1.06519198904e-06
4.68079624599  0.815814155391  5.07783426808  m  1  1  1  v  -2.18821980159e-05  7.66364199516e-07  1.65814596405e-05
-1.47893206756  4.44117309974  7.65687831329  m  1  1  1  v  6.00738108406e-07  7.63174208248e-06  -2.47717324543e-05
1.62253148315  4.40695807816  7.65566817488  m  1  1  1  v  1.7587874155e-05  3.70421200359e-05  -3.70673936403e-05
0.104435975702  7.11392981787  7.66803384131  m  1  1  1  v  5.3533948387e-06  -1.94670914353e-05  -6.11241697166e-06
6.19519918842  3.58769796684  0.0873761224403  m  1  1  1  v  1.8244697657e-05  2.82925424105e-05  -1.48488975351e-05
3.10075944613  3.60772945089  0.0910186787736  m  1  1  1  v  -1.37193485462e-05  1.24263692237e-05  -2.94349873755e-05
4.6209120262  0.900429953614  0.0798472258682  m  1  1  1  v  2.66233922009e-05  1.69441610939e-05  5.69915681345e-07
3.13064218081  1.72941763167  2.52917979147  m  1  1  1  v  2.58302585565e-06  2.65374634387e-05  -4.88169442525e-06
6.21739624357  1.69758913726  2.52458530967  m  1  1  1  v  1.23301498859e-05  -6.6101623716e-06  2.91507443929e-05
4.70318982471  4.40328803257  2.55616452882  m  1  1  1  v  -7.94985273518e-07  1.85029206306e-05  -4.40263366491e-06
1.63717357277  6.21296099517  5.11902313315  m  1  1  1  v  -4.57363578911e-05  5.29439844793e-05  -2.59179792814e-05
-1.45942884641  6.24851871149  5.12214307334  m  1  1  1  v  1.28455016267e-05  -3.38609726261e-05  2.37431330036e-05
0.0529142543534  3.53891319434  5.11277952305  m  1  1  1  v  -2.49032512124e-05  -3.9395597677e-06  -4.0296572377e-05
3.14660277398  1.70908905391  7.62670986586  m  1  1  1  v  -2.88074898566e-05  -1.177375606e-05  3.40952242417e-05
6.2474921524  1.67192491071  7.60476349613  m  1  1  1  v  -6.10086977136e-05  2.73674370865e-06  3.91217072301e-05
4.7318722178  4.37822714761  7.62460849465  m  1  1  1  v  3.16797747136e-05  -2.13812044224e-05  3.20890412082e-05
1.5803289987  6.30731274303  0.132155613015  m  1  1  1  v  -2.54901981885e-05  -1.6014034434e-05  -2.73751988562e-05
-1.52191459064  6.34456052691  0.130102923208  m  1  1  1  v  5.05569824879e-06  -3.46447231809e-05  -1.99980436516e-05
0.00663769813052  3.64772978589  0.115243412167  m  1  1  1  v  4.44762661357e-06  -5.48247991553e-06  4.95554440045e-06

C #label
0 #magnetism
36 #number of atoms
0.02958512691  1.76122898032  4.46148273099  m  1  1  1  v  -3.45923957259e-05  2.31947392564e-05  -2.78639326482e-05
3.18893317178  7.09568324597  4.49160625236  m  1  1  1  v  -6.29539355816e-06  -2.27555423688e-05  -2.3092418558e-05
-3.0157821016  7.1572507375  4.51119991725  m  1  1  1  v  2.49761263203e-05  2.88595732134e-05  9.06693765834e-07
4.74054470423  6.16952929127  7.01214910723  m  1  1  1  v  1.28495588891e-06  3.02695879223e-05  4.78883536891e-05
1.574273567  0.838082381759  6.98515593581  m  1  1  1  v  -6.00497084141e-06  -2.85653333107e-05  -8.24729123228e-06
7.79748457015  0.769697099348  6.9775681467  m  1  1  1  v  4.3819650622e-05  2.05454783474e-05  5.7519950912e-05
0.049110550475  1.73161828013  9.54639244067  m  1  1  1  v  6.4663973941e-06  -4.42216575238e-05  -4.57011079404e-05
3.20646351205  7.07228580056  9.57725448186  m  1  1  1  v  -2.15743502958e-05  -7.66476759401e-05  2.7788686913e-05
-2.98543930936  7.12894380379  9.59151682123  m  1  1  1  v  7.94339240274e-05  -4.84710844697e-05  9.5541151639e-06
4.73996082507  6.20019256524  1.93119723682  m  1  1  1  v  -3.2330166362e-05  1.09733071286e-05  6.07247172409e-05
1.57037581959  0.862692717129  1.91356708787  m  1  1  1  v  4.08331703428e-07  4.2447731878e-05  5.07380830409e-05
7.77695190727  0.796662230458  1.88124607431  m  1  1  1  v  1.99204204328e-05  6.17470375692e-06  3.61194500694e-07
-1.47930245847  4.46698939499  4.49175245737  m  1  1  1  v  7.41341011426e-05  2.11513898427e-06  -1.56532505777e-05
1.61552592485  4.42453218244  4.4803202242  m  1  1  1  v  5.82099065719e-06  3.25707082865e-05  -5.10475635618e-05
0.0907264237199  7.13510166377  4.5020028143  m  1  1  1  v  1.64812962036e-05  -4.67928482166e-05  4.29393618875e-05
6.25918895602  3.46818107535  6.99397397975  m  1  1  1  v  -4.86064611245e-05  -2.46948308442e-05  -4.62065171308e-05
3.15980733343  3.49683540318  7.00446840524  m  1  1  1  v  -3.26664090176e-05  1.13089011225e-05  -4.85603418362e-05
4.6881407279  0.789068817664  6.9877131422  m  1  1  1  v  1.78975427945e-05  3.88426838035e-06  1.68082798518e-05
-1.46729217634  4.42288593197  9.57515115298  m  1  1  1  v  -7.5791436763e-05  1.77636280098e-05  1.11371367816e-05
1.63434251612  4.39976415028  9.56702072372  m  1  1  1  v  -3.07957605584e-05  -2.59671471023e-05  9.34355141043e-05
0.107528457286  7.10560983614  9.58029834836  m  1  1  1  v  1.84011013175e-05  5.91290742065e-07  -1.9088776954e-05
6.25501387907  3.50567160139  1.91003105315  m  1  1  1  v  2.86626021822e-05  -6.24158857762e-05  3.97885790174e-05
3.13392873915  3.53025955951  1.92410428235  m  1  1  1  v  1.67668790751e-05  -1.5952689281e-05  7.71966184706e-05
4.66377868406  0.828797886198  1.90455263109  m  1  1  1  v  -1.52391268922e-05  -3.50497059733e-06  -7.72180734408e-05
3.12965023943  1.73033967432  4.4545775604  m  1  1  1  v  1.49619373817e-05  -3.02222885472e-05  2.47818291774e-06
6.23970113687  1.69645722779  4.43810756432  m  1  1  1  v  -2.4602340928e-05  -2.54120505301e-05  6.37272349724e-05
4.70593466381  4.38566189981  4.4765600606  m  1  1  1  v  4.75924329625e-05  4.70840044982e-05  -2.23257699486e-05
1.6411726791  6.20276282779  7.02677412172  m  1  1  1  v  -4.93671056398e-05  5.65543139957e-05  5.98335135065e-05
-1.46100647371  6.23170306168  7.04762532205  m  1  1  1  v  3.89978628582e-05  -3.1159385664e-05  2.32768776533e-05
0.0629572986477  3.52957397504  7.01873509322  m  1  1  1  v  -3.89061135847e-05  2.41624980458e-05  7.0394117947e-06
3.16424791506  1.69591290099  9.52964781321  m  1  1  1  v  2.3461407892e-05  -4.56840597088e-05  6.14269478324e-07
6.25609921003  1.66380679164  9.52532019584  m  1  1  1  v  -4.13939429452e-05  -1.0535026747e-05  1.99978088189e-05
4.7395501505  4.36600519485  9.55234991054  m  1  1  1  v  3.34761223275e-06  -2.0306499026e-05  -3.42453865083e-05
1.62971317777  6.2407982203  1.95007800309  m  1  1  1  v  -1.90023527478e-05  6.25243107546e-05  6.97428300338e-05
-1.4776691336  6.26295341436  1.96020904936  m  1  1  1  v  3.04790471808e-05  -4.47570255169e-05  3.52521851059e-05
0.0410238767251  3.56814226447  1.93483256555  m  1  1  1  v  -3.61640007638e-05  -1.8604412712e-05  -4.22262413575e-05
