ATOMIC_SPECIES
Si 28.085 Si_ONCV_PBE-1.0.upf upf201
C 12.011 C_ONCV_PBE-1.0.upf upf201

NUMERICAL_ORBITAL
Si_gga_9au_100Ry_3s3p2d.orb
C_gga_9au_100Ry_3s3p2d.orb

LATTICE_CONSTANT
1.88972612546

LATTICE_VECTORS
9.09407360031 0 0 #latvec1
-4.71143976009 8.28623005395 0 #latvec2
-0.0985988307041 0.221706426569 10.2867865679 #latvec3

ATOMIC_POSITIONS
Cartesian

Si #label
0 #magnetism
36 #number of atoms
-0.0152436569946  1.8391934434  2.51726899223  m  1  1  1  v  0.00013838119338  0.000277656790412  -0.000164871618935
3.03145391059  7.20752012629  2.47171993984  m  1  1  1  v  0.000252467880951  0.000153418062591  -0.00024892578945
-3.17436874696  7.15755190339  2.44078307049  m  1  1  1  v  0.000208023862229  5.03842400902e-05  0.000148847480505
4.53980986533  6.36227055123  5.03855755491  m  1  1  1  v  -0.000122778837631  -8.21911994064e-06  -1.93449595657e-05
1.50144014469  0.963460252487  5.07956220015  m  1  1  1  v  -4.65350526999e-05  -3.70353408643e-05  9.62059794593e-05
7.70839450998  1.04718588418  5.11359295188  m  1  1  1  v  -0.000156101833966  -1.8077891998e-05  3.67138261252e-05
-0.0443773418299  1.86623206174  7.61343161816  m  1  1  1  v  0.000309842786984  -1.18547673651e-05  9.56465337383e-05
2.98507154537  7.28644483544  7.57162345912  m  1  1  1  v  -7.18408718955e-05  -0.000269589187025  -3.57201168552e-05
-3.18860767814  7.21784404645  7.55010205859  m  1  1  1  v  -6.45096660985e-05  0.000197910648743  0.000258635195037
4.51224263417  6.40876400741  10.1337149094  m  1  1  1  v  -0.000240145739315  -0.000157216643806  0.000125388983499
1.4841689775  1.0120045996  10.1628153359  m  1  1  1  v  -6.14892289464e-05  0.000254998031933  6.66432284331e-05
7.68895624054  1.07484118844  10.2015417239  m  1  1  1  v  2.74315424145e-05  0.00015886860202  -0.00011456513349
-1.6267227674  4.49130978877  2.50715566796  m  1  1  1  v  0.000222151646087  5.50309665748e-05  0.000183726266858
1.48786809693  4.52105893883  2.5025820175  m  1  1  1  v  -3.71012848251e-05  -6.26086678777e-05  0.000159008168349
-0.0839092334905  7.1844019111  2.44811350233  m  1  1  1  v  -6.16393801503e-05  0.000233769109241  0.000168020594226
6.12997677031  3.67873837127  5.08966088067  m  1  1  1  v  2.91491662354e-06  -0.000247083078306  -0.000124354137308
3.02783191366  3.65705594137  5.04900349185  m  1  1  1  v  -0.000237693982675  5.266338586e-05  -0.000154393188735
4.61158089319  0.992599093464  5.11999508416  m  1  1  1  v  -0.000164932252402  -5.10869727935e-05  -0.000136352337408
-1.63022620446  4.54703065926  7.574183683  m  1  1  1  v  -0.000136940042208  0.000222510382611  4.13697376326e-05
1.46796888317  4.57305996261  7.60683323823  m  1  1  1  v  5.96399808429e-05  -2.21795777014e-05  0.000186271387434
-0.107079194045  7.26996977533  7.55366101058  m  1  1  1  v  0.000160253433047  0.000250897819299  0.000141434722957
6.09282010923  3.75317928654  10.1540571024  m  1  1  1  v  -0.000161984883109  -3.76791630749e-05  5.07187255012e-05
3.0244770182  3.7119644176  10.1480341638  m  1  1  1  v  6.12957183734e-05  -0.00016749277658  5.71787173945e-05
4.59092816283  1.03778131168  10.1825556524  m  1  1  1  v  -8.6238141551e-05  9.7023634815e-05  2.6782621129e-06
3.06706208349  1.84936693586  2.52756654409  m  1  1  1  v  9.71181633375e-05  -0.000291878368625  0.000199647838313
6.14954574814  1.88007361701  2.55769511759  m  1  1  1  v  0.000244748279081  8.38500160305e-05  -3.43403928239e-05
4.56953552463  4.54721952777  2.52170538862  m  1  1  1  v  0.000126131027049  0.000176256115469  2.23192037752e-05
1.47543384389  6.33819659876  5.01724925019  m  1  1  1  v  -4.28442206417e-05  4.6658672575e-05  -8.56327762073e-06
-1.64831621465  6.30453360813  4.99941687117  m  1  1  1  v  0.000193656284454  0.000185310732156  -0.000141969352715
-0.0391501717383  3.62773450566  5.04831562837  m  1  1  1  v  -0.000120375734395  0.000228993007233  -0.000161347872634
3.03245622905  1.88759865725  7.62241512433  m  1  1  1  v  -0.000248291223951  4.19664412713e-05  7.04625544402e-05
6.1451337553  1.94174861697  7.61796421528  m  1  1  1  v  0.000199942633733  -8.09419964112e-05  6.84052721102e-05
4.57498747532  4.60883182142  7.58922573521  m  1  1  1  v  -0.00011997390683  -7.79147310414e-06  0.000218916733305
1.43873579503  6.37161373829  10.1157626349  m  1  1  1  v  -5.33725783108e-05  -5.38664457991e-05  1.71672499699e-05
-1.67308323992  6.35594447404  10.0774256692  m  1  1  1  v  -3.91546534033e-05  2.62873653132e-05  7.77283003804e-05
-0.069419771125  3.68683708316  10.1251684712  m  1  1  1  v  0.00014875290927  -5.62354984442e-05  -0.000147089405729

C #label
0 #magnetism
36 #number of atoms
-0.0382832801168  1.85132797398  4.42258920061  m  1  1  1  v  0.00031819899125  0.000121928280108  -1.42183494569e-05
2.98909525682  7.22132387162  4.36995344928  m  1  1  1  v  0.000235376583499  8.71547995641e-05  -0.000396438202368
-3.18774790581  7.20666156516  4.3587602415  m  1  1  1  v  -0.000191200639387  0.000399868896275  0.000314950553444
4.55138963882  6.37183888503  6.91128090656  m  1  1  1  v  -0.000119717369741  -0.000418691817697  0.000136769913067
1.49846221857  0.99844362804  6.97870336127  m  1  1  1  v  -0.000221488595836  -0.000338678064289  -0.000266356181597
7.69344406012  1.02224894405  6.98806947252  m  1  1  1  v  -0.000243083439383  -0.000564423362238  0.000103580295008
-0.0679692062334  1.89413177463  9.52488028361  m  1  1  1  v  0.000109469018206  -5.40503607009e-05  9.88669250784e-05
2.97077140516  7.29450682862  9.47074304477  m  1  1  1  v  -0.000188680665309  0.000365952713379  5.08311164058e-05
-3.18521154241  7.25194754656  9.43547449944  m  1  1  1  v  0.000384510981323  0.000326272067354  5.26857741804e-05
4.57760926529  6.28980640607  1.84554027035  m  1  1  1  v  -0.000219638949811  -8.21800701356e-05  0.000342726489796
1.53303552619  0.918308375962  1.91213745838  m  1  1  1  v  0.000165996315583  8.58118365054e-05  -3.70321626923e-05
7.70267899043  0.97205995118  1.93651965089  m  1  1  1  v  8.1895456683e-05  -0.000253743681211  -3.27730219705e-05
-1.62867550275  4.51186633992  4.39062187363  m  1  1  1  v  -0.000135892750289  -0.000350490789085  -0.000161704329298
1.47458647165  4.57353843359  4.38717236179  m  1  1  1  v  -0.000437848055303  6.31022441816e-05  -1.57085224913e-05
-0.093593069139  7.23477768759  4.3959388586  m  1  1  1  v  0.000206897429497  -9.10040041395e-05  -0.000306050752509
6.10049719593  3.72317101629  6.98336598633  m  1  1  1  v  -0.000184084161873  0.000171255401949  -0.00031927158158
3.01338329109  3.66582635113  6.95629847418  m  1  1  1  v  7.88766299616e-05  -0.000248296407898  0.00014486295799
4.60936829255  1.00802782666  6.98058872986  m  1  1  1  v  0.000193477741791  1.66760535577e-06  -1.70969321583e-05
-1.64702439252  4.5554998125  9.47824896951  m  1  1  1  v  -0.000163614102736  -6.48747939476e-05  -0.000345172251741
1.47077046504  4.60746250773  9.49204395069  m  1  1  1  v  0.000240939056569  0.00025408912894  0.000161394172729
-0.12320961856  7.26353128133  9.48091201736  m  1  1  1  v  0.000181055142817  -2.21505783179e-05  0.000317253584245
6.131910082  3.65276972817  1.88369048517  m  1  1  1  v  6.16331075541e-05  1.23364288695e-05  -0.000407204370277
3.06318221083  3.61431319059  1.86401312982  m  1  1  1  v  0.000227104488807  -0.000149706273026  -0.000251293620634
4.64500976458  0.946842456254  1.92348730141  m  1  1  1  v  6.13743323982e-05  -0.000162304483064  -0.000161406581417
3.0530226448  1.88479336053  4.44637862519  m  1  1  1  v  3.33514996537e-05  7.20751523744e-05  -0.000258823431784
6.17594980662  1.89157109489  4.45561642592  m  1  1  1  v  0.000177785475966  1.74370392478e-05  2.0697767203e-05
4.59021722494  4.57339216762  4.42495632413  m  1  1  1  v  -7.3744703688e-05  6.8383559837e-05  -0.000257659850896
1.45898912892  6.35465003114  6.95370841083  m  1  1  1  v  7.29424456291e-05  -0.000189599628202  0.000269203721866
-1.65578817554  6.33163994717  6.94132972328  m  1  1  1  v  6.14655408915e-05  2.15522242443e-05  0.000151933778862
-0.0640328316897  3.65182324577  6.95689590629  m  1  1  1  v  0.000226837841815  -0.000242655572454  -4.16072381018e-05
3.03571222613  1.93194849876  9.51372095635  m  1  1  1  v  -0.000144983036359  -0.000116052357907  -0.000117377358781
6.14213407586  1.93493000923  9.54502927523  m  1  1  1  v  0.00012720057455  -0.000408631932033  -2.98926726277e-05
4.54988995889  4.61282476858  9.51223397531  m  1  1  1  v  -0.000180997311487  -0.000172406754041  0.000317828665796
1.48824888249  6.29099632429  1.84901018834  m  1  1  1  v  0.000114701764564  -7.3138705483e-05  0.000162758844006
-1.62482750816  6.23086201264  1.85318367395  m  1  1  1  v  7.14438471895e-06  -1.19222507356e-05  0.00027004949545
-0.0473203581141  3.6020743636  1.85182235535  m  1  1  1  v  -0.000242348331133  0.000170903674118  -0.000162320035557
