ATOMIC_SPECIES
Si 28.085 Si_ONCV_PBE-1.0.upf upf201
C 12.011 C_ONCV_PBE-1.0.upf upf201

NUMERICAL_ORBITAL
Si_gga_9au_100Ry_3s3p2d.orb
C_gga_9au_100Ry_3s3p2d.orb

LATTICE_CONSTANT
1.88972612546

LATTICE_VECTORS
9.09407360031 0 0 #latvec1
-4.71143976009 8.28623005395 0 #latvec2
-0.0985988307041 0.221706426569 10.2867865679 #latvec3

ATOMIC_POSITIONS
Cartesian

Si #label
0 #magnetism
36 #number of atoms
-0.0187300302744  1.82173423972  2.51639474574  m  1  1  1  v  6.04784904509e-05  -6.52949214334e-06  -2.02056021061e-05
3.01985753147  7.21015263656  2.47634779962  m  1  1  1  v  2.57396415516e-05  3.31156995147e-05  -1.29862328863e-05
-3.17776921202  7.15691961786  2.44421860345  m  1  1  1  v  -6.77731644129e-06  2.35684068628e-05  0.000106066469914
4.55886072117  6.37362466651  5.03896629183  m  1  1  1  v  -0.000132517562789  4.69284361836e-05  9.81776389705e-05
1.51135412413  0.968671533577  5.08100612764  m  1  1  1  v  -7.40497519131e-05  1.26271316811e-05  -5.58921236328e-05
7.72410632133  1.04156314896  5.10352771612  m  1  1  1  v  -0.00015518226737  0.000105917110748  -7.0502752742e-05
-0.0474970211272  1.86630039334  7.6098535815  m  1  1  1  v  6.79504910343e-05  5.48383555271e-05  5.82950116678e-05
2.99145799268  7.27998705581  7.56875533193  m  1  1  1  v  -0.000104567716016  8.13102450318e-05  -9.26683820974e-05
-3.19384516313  7.20334513465  7.53775623441  m  1  1  1  v  -4.05378604677e-05  9.63622612842e-05  -2.07878011702e-05
4.5332444557  6.41019154347  10.1198568844  m  1  1  1  v  -9.52603104683e-05  -6.46617689026e-05  5.76397935133e-06
1.49335583282  1.01098593807  10.1645647578  m  1  1  1  v  -0.000114251254655  -5.32408143732e-05  -4.55710800412e-05
7.68535243737  1.07009564423  10.2016922882  m  1  1  1  v  2.66200468234e-05  -6.55546156034e-05  -1.06359332153e-05
-1.62208885619  4.48841805717  2.49632331478  m  1  1  1  v  -0.000100277343481  -6.86178152292e-05  0.000168016673149
1.48917364865  4.51822759914  2.49676813035  m  1  1  1  v  0.000142933488014  -0.00017231338156  -1.27700405678e-05
-0.0767776221596  7.18239075514  2.46128664498  m  1  1  1  v  6.07908112185e-06  4.91752690532e-06  -0.000200714210593
6.13770750727  3.6884903913  5.08586971999  m  1  1  1  v  -8.25033480122e-05  8.53943191306e-05  0.000196379165243
3.02954860208  3.66030500982  5.05488166071  m  1  1  1  v  0.000120549687306  -0.000105677441447  -1.26131684004e-05
4.61537203415  0.999262071213  5.11637904979  m  1  1  1  v  -7.52449097703e-05  1.10741542527e-06  2.25976337781e-05
-1.6276478992  4.5404097916  7.56110817566  m  1  1  1  v  0.000117784919775  -4.70876116817e-05  8.70377975219e-05
1.45992689528  4.56777062755  7.60414046179  m  1  1  1  v  9.58365174239e-06  0.000105146200113  1.01064865735e-05
-0.109874983892  7.25310332  7.55234343681  m  1  1  1  v  -2.46338060113e-05  0.000234992419897  -3.09361908098e-05
6.10696579665  3.76317885297  10.1483883891  m  1  1  1  v  -0.000127148680005  3.10655162762e-05  -6.92607474349e-06
3.01848439538  3.71313254809  10.1376505637  m  1  1  1  v  0.000113053238535  0.000131805527329  0.000102229084249
4.58205694661  1.03548562993  10.1775527347  m  1  1  1  v  4.2887171644e-05  2.63985222043e-05  -6.33037846913e-05
3.0689244243  1.83728470008  2.52104970928  m  1  1  1  v  2.00727946956e-05  5.18590011628e-05  0.000125728223886
6.15851056065  1.87580037069  2.55164612965  m  1  1  1  v  -0.000177199437773  7.81293331696e-06  3.78092265988e-06
4.58238598387  4.53476057253  2.52810971771  m  1  1  1  v  6.96550066977e-07  -9.03194466556e-05  0.000125334150191
1.46355537913  6.33480104787  5.01827811494  m  1  1  1  v  5.32355650195e-06  8.65125430695e-05  -7.50420200505e-05
-1.65189120488  6.30125084549  5.00428726255  m  1  1  1  v  5.18452975955e-05  -7.47688541068e-05  7.62396562458e-05
-0.0450326945564  3.62174891696  5.05376617344  m  1  1  1  v  0.000116281500214  -8.72714983987e-05  -5.35559210857e-05
3.04124572998  1.89007926942  7.62296334758  m  1  1  1  v  -9.73105552388e-05  -0.000121509526554  0.000165240110753
6.14923078354  1.93801194288  7.61434202269  m  1  1  1  v  8.75846410922e-05  1.92036642512e-05  1.72183137864e-05
4.57321274691  4.60007487081  7.57973811238  m  1  1  1  v  4.59302903816e-05  -7.4377892301e-05  -8.83472774864e-05
1.43383295217  6.38219488027  10.1198007508  m  1  1  1  v  -8.76761799346e-05  -2.47028233767e-05  -5.13515924287e-05
-1.6657536448  6.35022053489  10.0834199316  m  1  1  1  v  -0.000162366890728  8.20021229641e-06  6.82737921454e-06
-0.0753233541495  3.68741517984  10.1318625839  m  1  1  1  v  -4.8673212444e-05  5.46579045872e-05  4.50795742704e-05

C #label
0 #magnetism
36 #number of atoms
-0.0399962007721  1.8382645976  4.41184199402  m  1  1  1  v  9.01031703073e-05  0.000153243092116  -0.000111755669893
2.99556038747  7.23585021248  4.39712365225  m  1  1  1  v  -0.000196100253677  0.000135769551363  3.63459870887e-05
-3.19649090017  7.18063312537  4.35860854612  m  1  1  1  v  0.000175773400756  -8.09974427729e-05  0.000200758074983
4.54360371617  6.40190824846  6.91952526936  m  1  1  1  v  -0.000312972483446  -0.000114572774672  4.82099786754e-05
1.49707986109  0.996652905974  6.99442502324  m  1  1  1  v  0.000117536334109  9.30610773745e-05  -0.000113065306634
7.71552833889  1.04320557925  7.00986249433  m  1  1  1  v  -0.000152345861035  0.000177853326921  -9.48612332052e-05
-0.0715733629037  1.89830026201  9.52200623801  m  1  1  1  v  -0.000206299987513  0.000106538137214  -0.0002008424504
2.96222593982  7.2765812993  9.47159237151  m  1  1  1  v  -0.000125654167871  -3.1287386933e-05  -0.000178114169897
-3.20564133014  7.2331009143  9.42579815775  m  1  1  1  v  0.00022547023016  0.000114731894804  0.000124660181483
4.58783969877  6.31100231542  1.854673299  m  1  1  1  v  -2.9183957613e-05  -0.000125825740816  -0.000266038490397
1.52848690023  0.920305964146  1.90158047693  m  1  1  1  v  -0.000170393841793  -0.000179158899364  -9.58800665686e-05
7.73135513231  0.981473030692  1.94206407077  m  1  1  1  v  -6.5156443337e-05  -0.000108937301912  -8.35311802972e-05
-1.62714640335  4.53101991371  4.40569952814  m  1  1  1  v  0.000243577873455  0.000116245000615  -0.000202657311339
1.47847855072  4.5525207496  4.41261043783  m  1  1  1  v  -2.1577810565e-05  -0.000114685955923  -0.000202078498071
-0.0943274791146  7.21947938242  4.38548891355  m  1  1  1  v  4.16767041554e-05  6.03356040425e-05  -1.10128304098e-05
6.10097252956  3.71306401967  6.99581884453  m  1  1  1  v  -0.000165139416655  -6.63857511562e-05  0.000210897864232
3.02531915831  3.68803483251  6.95543319203  m  1  1  1  v  -9.8832662802e-05  2.94829628511e-05  4.57517671443e-06
4.60751445222  1.01727521916  6.99582765513  m  1  1  1  v  8.67225325619e-05  0.000192780105604  -9.71473496434e-05
-1.63164149226  4.55114073316  9.48762313463  m  1  1  1  v  -1.64259650188e-05  9.65085082051e-05  0.000203394941012
1.46393870899  4.59510493137  9.49794774319  m  1  1  1  v  -1.85957572924e-05  -0.000220832816876  -0.000145611838396
-0.11908084234  7.27353955497  9.4736330499  m  1  1  1  v  0.000169923192824  -5.32679947521e-06  9.90851541451e-05
6.14826879156  3.66221721287  1.89613113928  m  1  1  1  v  -5.61139782997e-05  -8.68142858901e-05  4.34446150961e-05
3.04765396338  3.61838867035  1.88282896385  m  1  1  1  v  0.000136920858978  -0.000222795545182  -0.000175334527945
4.63571823216  0.953502468462  1.91141237849  m  1  1  1  v  0.000310659045835  4.10410267038e-05  8.44685828753e-05
3.03669381362  1.87347175411  4.44462078478  m  1  1  1  v  -0.00022824022941  0.000115131106792  0.000119230422187
6.159537405  1.89601172029  4.46020992905  m  1  1  1  v  -0.00030824367582  -0.000285800077202  -0.000209862807313
4.57125192059  4.56216089589  4.42568211271  m  1  1  1  v  -1.35103095938e-05  -2.6790604127e-05  -0.000161016693941
1.44682978065  6.3641386933  6.92856320069  m  1  1  1  v  -2.76021610612e-05  7.05996350196e-05  6.62716003982e-05
-1.65715717195  6.32261122568  6.93122516445  m  1  1  1  v  0.000234015394203  -4.49061120712e-05  8.83079024964e-05
-0.0731223772914  3.64935387805  6.96011164615  m  1  1  1  v  0.000120366265688  0.000280276086517  -0.000118092801315
3.04422238906  1.92493481023  9.52216171305  m  1  1  1  v  -8.22243936566e-05  6.55448714391e-05  0.000183623178884
6.13943756772  1.95397155854  9.56199490843  m  1  1  1  v  -1.92750077361e-06  -0.00019120020135  -0.000168195767604
4.55684148253  4.6069211784  9.52428802559  m  1  1  1  v  0.00012768017195  -1.95924295193e-05  -3.96043266607e-05
1.47807124391  6.30040603128  1.85252357157  m  1  1  1  v  3.24640609906e-05  -5.38285597085e-05  -0.000321093864531
-1.62842607521  6.24633026291  1.83760224278  m  1  1  1  v  0.000158611651632  -0.000284209339798  0.000173958175938
-0.0626796293819  3.59369045244  1.86747769636  m  1  1  1  v  -6.81633173775e-05  -0.000247981382163  -5.86912582442e-05
