ATOMIC_SPECIES
Si 28.085 Si_ONCV_PBE-1.0.upf upf201
C 12.011 C_ONCV_PBE-1.0.upf upf201

NUMERICAL_ORBITAL
Si_gga_9au_100Ry_3s3p2d.orb
C_gga_9au_100Ry_3s3p2d.orb

LATTICE_CONSTANT
1.88972612546

LATTICE_VECTORS
9.53185264782 0 0 #latvec1
-4.79354016486 7.97429561932 0 #latvec2
0.0281409424334 0.218829458602 10.5064847467 #latvec3

ATOMIC_POSITIONS
Cartesian

Si #label
0 #magnetism
36 #number of atoms
0.00298787373231  1.85790032394  2.54192132289  m  1  1  1  v  7.8263811607e-05  0.000270037914347  -0.000180458504592
3.14142025554  7.24251143514  2.47790021936  m  1  1  1  v  0.000263735958538  0.000108641408978  -0.000254580148353
-3.14944963014  7.23577354123  2.48472283874  m  1  1  1  v  0.000142029456553  -4.04001233052e-05  0.000129495351494
4.68623538973  6.3829863197  5.06476131536  m  1  1  1  v  -6.88335595621e-05  1.86351191515e-06  -2.04110848403e-05
1.56347855757  0.972282215245  5.1224281772  m  1  1  1  v  -6.15346724977e-05  2.68254257017e-06  9.71090829337e-05
7.83531758286  1.0004247804  5.13693849598  m  1  1  1  v  -9.11354087112e-05  5.21217259838e-05  1.56354052603e-05
-0.00461732665125  1.89817269753  7.6896382252  m  1  1  1  v  0.000251893931329  -3.00976998026e-05  7.61896975879e-05
3.11757689658  7.30972946228  7.63296526609  m  1  1  1  v  -5.72749858704e-05  -0.000318644299111  -3.66923319375e-05
-3.12794461597  7.31270248783  7.64689391153  m  1  1  1  v  -0.000127028640499  0.000105137995513  0.000249437005727
4.67557498788  6.44699701531  10.2265466211  m  1  1  1  v  -0.000185367045315  -0.000155794566396  0.000127818284393
1.55761508659  1.01654704595  10.2707293181  m  1  1  1  v  -7.13943650613e-05  0.000298961545454  7.53664097176e-05
7.85448972674  1.03112787251  10.2489932651  m  1  1  1  v  9.63567546464e-05  0.000234584291457  -0.000118134852823
-1.57831018617  4.5460787305  2.533456214  m  1  1  1  v  0.000150370844924  2.16857939986e-05  0.000157737035799
1.57558875066  4.56733520737  2.51234958159  m  1  1  1  v  -4.15305144069e-05  -6.44156138037e-05  0.000153058842312
-0.0184999436613  7.24487849268  2.46693650321  m  1  1  1  v  -6.05959648446e-05  0.000171506185  0.000169267165533
6.2642786713  3.67884775311  5.09161218895  m  1  1  1  v  6.18323455254e-05  -0.00022175577314  -0.00013279247225
3.11392324159  3.66620216843  5.09687144044  m  1  1  1  v  -0.000232387122731  5.08595602933e-05  -0.000160322987178
4.68355897009  0.974829509205  5.12725097468  m  1  1  1  v  -0.000154058174662  -3.3652208316e-06  -0.000121294895262
-1.58035553801  4.595352999  7.65350506278  m  1  1  1  v  -0.000202714317298  0.000192219459024  2.06353297007e-05
1.56313246466  4.61685430742  7.64981485856  m  1  1  1  v  5.90753309578e-05  -2.66866195624e-05  0.000195169388354
0.00226257046563  7.32451637274  7.63086543046  m  1  1  1  v  0.000155231937364  0.000192752440439  0.000149921609808
6.26637471519  3.7368685901  10.2235546025  m  1  1  1  v  -0.00010037227355  -3.01722192086e-06  4.21455736472e-05
3.14449520411  3.72167611516  10.2542726849  m  1  1  1  v  6.30033416089e-05  -0.000165653479701  5.97660605827e-05
4.71868173974  1.03429151384  10.2658123196  m  1  1  1  v  -8.48471747701e-05  0.000133230273324  1.15261466566e-05
3.12222186304  1.8560776632  2.54957533182  m  1  1  1  v  9.8775400998e-05  -0.000270373958287  0.000193688201164
6.24720707385  1.85260610203  2.54710894786  m  1  1  1  v  0.000260916330845  0.000112123780241  -3.8628389208e-05
4.68965754025  4.56813377473  2.50434252697  m  1  1  1  v  0.000137887882811  0.000184139645493  1.4866789212e-05
1.56802093888  6.37630628161  5.05862113086  m  1  1  1  v  -3.73992295265e-05  2.78774752779e-05  -8.57882867588e-06
-1.55792206624  6.37285924048  5.07983174482  m  1  1  1  v  0.000169492127458  0.000157520713105  -0.000148571822535
0.00939108320341  3.67687365217  5.08313411395  m  1  1  1  v  -0.000133082190091  0.000212385577057  -0.000160436762665
3.12654260956  1.89614823721  7.68555434325  m  1  1  1  v  -0.000251855856103  5.7904782082e-05  7.80587761891e-05
6.2811986154  1.92702278144  7.68693285255  m  1  1  1  v  0.000210932132147  -5.58138041755e-05  5.56222183073e-05
4.70865182746  4.61504414767  7.66193817371  m  1  1  1  v  -0.000101981962607  1.71738781135e-06  0.000208332828614
1.57511265938  6.4093444545  10.2209116961  m  1  1  1  v  -4.95816400073e-05  -7.31328875299e-05  2.59186329774e-05
-1.57671461197  6.42347708262  10.1969149008  m  1  1  1  v  -5.35942679993e-05  1.02524247393e-06  8.27486310744e-05
1.76313464184e-05  3.7081175719  10.2356357084  m  1  1  1  v  0.000142584308436  -5.97092511197e-05  -0.000146269603725

C #label
0 #magnetism
36 #number of atoms
-0.0231457759459  1.86791966574  4.48080951715  m  1  1  1  v  0.000187844070059  7.49058432691e-05  3.2746442484e-05
3.10870929939  7.25087983052  4.38573394091  m  1  1  1  v  0.000244995635243  1.49182731128e-05  -0.000399143083766
-3.15069488033  7.26662273926  4.4304296807  m  1  1  1  v  -0.000311773982887  0.000236843849588  0.00032323258433
4.72963638193  6.39691366987  6.98430040748  m  1  1  1  v  6.32319799883e-07  -0.000373407380287  0.000180096513634
1.5687576117  1.00451815455  7.04116283468  m  1  1  1  v  -0.000241909862569  -0.000205625424252  -0.000293928114268
7.84253968036  1.00830839212  7.0162560168  m  1  1  1  v  -9.65298694241e-05  -0.000368849228112  0.000142617684377
-0.0348025077452  1.90180345462  9.61611130553  m  1  1  1  v  -1.87082652046e-05  -9.97960537785e-05  0.000162632599313
3.13784096641  7.32686598231  9.53052709496  m  1  1  1  v  -0.000192658127948  0.000274639753183  4.64081344839e-05
-3.14032562935  7.32557204407  9.58350966126  m  1  1  1  v  0.000286922613026  0.000159890744489  4.10780040459e-05
4.71589806878  6.34223813406  1.84440126223  m  1  1  1  v  -8.36988210909e-05  -3.82060175104e-05  0.000393578953269
1.56203319724  0.954700474437  1.91321540827  m  1  1  1  v  0.000149326687492  0.000198803084825  -7.13891916859e-05
7.8356782604  0.967860187455  1.90334344829  m  1  1  1  v  0.000211280553354  -6.79391942514e-05  -1.29778119048e-05
-1.60080044975  4.55059668917  4.45320604887  m  1  1  1  v  -0.000269608105691  -0.0004019272239  -0.000129923298165
1.55068026399  4.58753450103  4.41509386832  m  1  1  1  v  -0.000433397458249  8.59497048295e-05  -9.58709832286e-06
-0.00300038941583  7.27133261119  4.43502914909  m  1  1  1  v  0.000200340587852  -0.000189211190529  -0.000328055041682
6.27224150903  3.73098845344  7.03094454291  m  1  1  1  v  -4.58774109982e-05  0.000238901132795  -0.000263557443036
3.11709248421  3.67534183828  7.01200365847  m  1  1  1  v  7.6727444976e-05  -0.000250867984133  0.000148159015067
4.6941238217  1.01512532749  7.03251873294  m  1  1  1  v  0.000210933539208  0.000126695875195  -5.52203431652e-05
-1.60024722092  4.60525411349  9.58475902099  m  1  1  1  v  -0.000301994978115  -0.000133627761899  -0.000297901594057
1.56583327906  4.64255353221  9.57349734775  m  1  1  1  v  0.000250353812212  0.000255452950954  0.000167212162641
0.00403881207786  7.29365868912  9.5851345422  m  1  1  1  v  0.000170048018856  -9.80888694026e-05  0.0003007345308
6.27655361599  3.65509787209  1.86638878533  m  1  1  1  v  0.000206386909669  9.07136779619e-05  -0.000353169732131
3.14228880959  3.64714362731  1.86074675382  m  1  1  1  v  0.000225855187268  -0.000168949734022  -0.000257873946684
4.71377998151  0.944283894361  1.92463319455  m  1  1  1  v  5.790257372e-05  -2.32864740172e-05  -0.000200931966988
3.14101412243  1.87325204706  4.47849159457  m  1  1  1  v  2.19215827677e-05  0.00011231151005  -0.000249642983663
6.27606334509  1.85355655175  4.46252733567  m  1  1  1  v  0.000208000192492  6.3024548207e-05  2.7556679381e-05
4.70742878006  4.5921565006  4.43794784398  m  1  1  1  v  -5.61099075474e-05  7.76517872376e-05  -0.0002620362834
1.5646187629  6.39160039998  7.0077778895  m  1  1  1  v  7.15032848319e-05  -0.000208337742157  0.000278432321977
-1.57710095294  6.41179887585  7.01277927529  m  1  1  1  v  3.79031548904e-05  -1.98163567472e-05  0.000172154333349
0.00991717117445  3.69007034677  7.03063406181  m  1  1  1  v  0.000204079782443  -0.000254272430802  -5.59202059757e-05
3.11907695853  1.92400045395  9.61614394308  m  1  1  1  v  -0.000125821913174  -8.27059377095e-05  -0.000114957746791
6.28387102534  1.89769657773  9.59949622938  m  1  1  1  v  0.000151626636185  -0.000364638514491  -9.1008044283e-06
4.6937002743  4.63220924925  9.58612345912  m  1  1  1  v  -0.000161048696522  -0.000168805162147  0.000331131443234
1.57682554217  6.33960285808  1.85857992951  m  1  1  1  v  9.93862979057e-05  -9.6621132259e-05  0.000160566749538
-1.56634550812  6.31314377756  1.87116009591  m  1  1  1  v  -3.44435873809e-05  -5.81593042384e-05  0.000271454689738
0.0107136559932  3.65007727381  1.85603438652  m  1  1  1  v  -0.000272471240836  0.000147939088871  -0.000172573393031
