ATOMIC_SPECIES
Si 28.085 Si_ONCV_PBE-1.0.upf upf201
C 12.011 C_ONCV_PBE-1.0.upf upf201

NUMERICAL_ORBITAL
Si_gga_9au_100Ry_3s3p2d.orb
C_gga_9au_100Ry_3s3p2d.orb

LATTICE_CONSTANT
1.88972612546

LATTICE_VECTORS
9.53185264782 0 0 #latvec1
-4.79354016486 7.97429561932 0 #latvec2
0.0281409424334 0.218829458602 10.5064847467 #latvec3

ATOMIC_POSITIONS
Cartesian

Si #label
0 #magnetism
36 #number of atoms
0.00404527918387  1.84355183382  2.54440723526  m  1  1  1  v  2.08222112447e-05  -5.34848695057e-06  1.34555746122e-05
3.13012206244  7.25219283009  2.47961261022  m  1  1  1  v  8.80550339023e-06  -1.47003972316e-05  2.75078094137e-05
-3.13841458087  7.25241566089  2.48932551846  m  1  1  1  v  -5.13704579227e-05  1.41017324051e-05  -1.22500325592e-05
4.69724793993  6.39044172773  5.06510583858  m  1  1  1  v  5.06210832341e-05  -5.44693153308e-05  3.69179263889e-06
1.57585048443  0.960593569866  5.12227609652  m  1  1  1  v  1.45510166814e-05  3.88272604189e-05  -2.83786180457e-05
7.84272329602  0.976327030432  5.13120424884  m  1  1  1  v  3.19016495298e-07  -5.67690194237e-06  5.60940028368e-06
0.00481589339917  1.90259417415  7.68629523728  m  1  1  1  v  -3.59402677604e-05  -4.7374172969e-06  -8.39284815119e-07
3.12800505766  7.30859581418  7.63866117567  m  1  1  1  v  2.41853717426e-05  2.49994627707e-05  -4.10585253683e-05
-3.12292693273  7.31231102537  7.63280350727  m  1  1  1  v  4.91735204922e-05  1.34704857126e-05  -2.21277793633e-06
4.69046700758  6.44191478753  10.2125889797  m  1  1  1  v  4.51656259477e-06  -1.56630651859e-05  2.29569199702e-05
1.57420233845  1.01265134679  10.2662473466  m  1  1  1  v  -3.60673516164e-06  4.31457733531e-05  -7.86229155721e-06
7.8405339079  1.01988313913  10.250150456  m  1  1  1  v  1.52729539727e-05  -3.04159189209e-05  -2.5113218204e-05
-1.56130749947  4.54861863241  2.52565965379  m  1  1  1  v  -6.1575338024e-06  -1.85475888336e-05  -2.91298305641e-05
1.57255322124  4.55923451373  2.51040067691  m  1  1  1  v  6.82219232602e-06  2.35216016119e-05  -9.81867343464e-06
-0.00980953426427  7.25540748847  2.48733908677  m  1  1  1  v  -9.31283028812e-06  -1.4861185074e-05  -4.55236308994e-05
6.25854209518  3.68544950913  5.08635641888  m  1  1  1  v  -1.31307426207e-07  -1.28883568417e-05  3.20378699329e-05
3.11456450262  3.67153452987  5.10537119325  m  1  1  1  v  -3.57207413218e-06  5.65397935133e-05  -1.06519198904e-06
4.69054218268  0.968135992004  5.1173836029  m  1  1  1  v  -2.18821980159e-05  7.66364199516e-07  1.65814596405e-05
-1.56484774481  4.58676104744  7.64325266425  m  1  1  1  v  6.00738108406e-07  7.63174208248e-06  -2.47717324543e-05
1.55342087632  4.60810773204  7.64797057227  m  1  1  1  v  1.7587874155e-05  3.70421200359e-05  -3.70673936403e-05
0.00235463028116  7.31171878274  7.62507720644  m  1  1  1  v  5.3533948387e-06  -1.94670914353e-05  -6.11241697166e-06
6.26988571787  3.74192101892  10.2216277895  m  1  1  1  v  1.8244697657e-05  2.82925424105e-05  -1.48488975351e-05
3.13755936908  3.72486983672  10.2387538544  m  1  1  1  v  -1.37193485462e-05  1.24263692237e-05  -2.94349873755e-05
4.70821010758  1.02202645137  10.264704566  m  1  1  1  v  2.66233922009e-05  1.69441610939e-05  5.69915681345e-07
3.12234076875  1.83978345882  2.54304263716  m  1  1  1  v  2.58302585565e-06  2.65374634387e-05  -4.88169442525e-06
6.26024342948  1.84292424211  2.54250998682  m  1  1  1  v  1.23301498859e-05  -6.6101623716e-06  2.91507443929e-05
4.69764763434  4.56190569684  2.50780280257  m  1  1  1  v  -7.94985273518e-07  1.85029206306e-05  -4.40263366491e-06
1.55580661677  6.37143841173  5.06540069004  m  1  1  1  v  -4.57363578911e-05  5.29439844793e-05  -2.59179792814e-05
-1.55663892011  6.37637785909  5.07835920842  m  1  1  1  v  1.28455016267e-05  -3.38609726261e-05  2.37431330036e-05
0.00106552005177  3.67448706859  5.08701790544  m  1  1  1  v  -2.49032512124e-05  -3.9395597677e-06  -4.0296572377e-05
3.14048472596  1.89998182785  7.68229716615  m  1  1  1  v  -2.88074898566e-05  -1.177375606e-05  3.40952242417e-05
6.27932889912  1.91462590407  7.69138925995  m  1  1  1  v  -6.10086977136e-05  2.73674370865e-06  3.91217072301e-05
4.70634131834  4.60859317587  7.66241591232  m  1  1  1  v  3.16797747136e-05  -2.13812044224e-05  3.20890412082e-05
1.56763837915  6.41549319164  10.2200441464  m  1  1  1  v  -2.54901981885e-05  -1.6014034434e-05  -2.73751988562e-05
-1.57001112251  6.42089851837  10.1964889138  m  1  1  1  v  5.05569824879e-06  -3.46447231809e-05  -1.99980436516e-05
-0.0084344836692  3.70584521491  10.235533371  m  1  1  1  v  4.44762661357e-06  -5.48247991553e-06  4.95554440045e-06

C #label
0 #magnetism
36 #number of atoms
-0.000729681658668  1.85454865543  4.47026011599  m  1  1  1  v  -3.45923957259e-05  2.31947392564e-05  -2.78639326482e-05
3.1217262154  7.2826060647  4.4124662897  m  1  1  1  v  -6.29539355816e-06  -2.27555423688e-05  -2.3092418558e-05
-3.13507750934  7.26221474053  4.42564603309  m  1  1  1  v  2.49761263203e-05  2.88595732134e-05  9.06693765834e-07
4.69847412451  6.40578558086  6.99743925173  m  1  1  1  v  1.28495588891e-06  3.02695879223e-05  4.78883536891e-05
1.56969546245  0.976745085616  7.05918186236  m  1  1  1  v  -6.00497084141e-06  -2.85653333107e-05  -8.24729123228e-06
7.82872469332  0.991210417696  7.043579714  m  1  1  1  v  4.3819650622e-05  2.05454783474e-05  5.7519950912e-05
-0.00217665790452  1.91963743602  9.60342338917  m  1  1  1  v  6.4663973941e-06  -4.42216575238e-05  -4.57011079404e-05
3.14205665321  7.3391400757  9.54119214792  m  1  1  1  v  -2.15743502958e-05  -7.66476759401e-05  2.7788686913e-05
-3.14170450884  7.33255654886  9.57397558961  m  1  1  1  v  7.94339240274e-05  -4.84710844697e-05  9.5541151639e-06
4.69764290083  6.36346012246  1.85235291871  m  1  1  1  v  -3.2330166362e-05  1.09733071286e-05  6.07247172409e-05
1.56463381024  0.930041899827  1.92347865359  m  1  1  1  v  4.08331703428e-07  4.2447731878e-05  5.07380830409e-05
7.83550381907  0.937517516146  1.90213459295  m  1  1  1  v  1.99204204328e-05  6.17470375692e-06  3.61194500694e-07
-1.57057497573  4.56972339279  4.45937330394  m  1  1  1  v  7.41341011426e-05  2.11513898427e-06  -1.56532505777e-05
1.56751131931  4.55499358634  4.44373132445  m  1  1  1  v  5.82099065719e-06  3.25707082865e-05  -5.10475635618e-05
0.00221176293689  7.2747118554  4.42187420368  m  1  1  1  v  1.64812962036e-05  -4.67928482166e-05  4.29393618875e-05
6.26425852715  3.70195520332  7.02392077941  m  1  1  1  v  -4.86064611245e-05  -2.46948308442e-05  -4.62065171308e-05
3.12862483483  3.69610160939  7.01725977444  m  1  1  1  v  -3.26664090176e-05  1.13089011225e-05  -4.85603418362e-05
4.6949422622  0.994452575893  7.06259281337  m  1  1  1  v  1.78975427945e-05  3.88426838035e-06  1.68082798518e-05
-1.56863531304  4.62377954678  9.57812023391  m  1  1  1  v  -7.5791436763e-05  1.77636280098e-05  1.11371367816e-05
1.56627025351  4.62782342781  9.58330943902  m  1  1  1  v  -3.07957605584e-05  -2.59671471023e-05  9.34355141043e-05
0.00418481940622  7.3180151027  9.56846143689  m  1  1  1  v  1.84011013175e-05  5.91290742065e-07  -1.9088776954e-05
6.26358729  3.64618323492  1.87927284668  m  1  1  1  v  2.86626021822e-05  -6.24158857762e-05  3.97885790174e-05
3.12967225178  3.65712870467  1.88653410619  m  1  1  1  v  1.67668790751e-05  -1.5952689281e-05  7.71966184706e-05
4.69834597501  0.931530950469  1.92905309473  m  1  1  1  v  -1.52391268922e-05  -3.50497059733e-06  -7.72180734408e-05
3.13424069639  1.85182636974  4.48008111466  m  1  1  1  v  1.49619373817e-05  -3.02222885472e-05  2.47818291774e-06
6.257813073  1.85848734267  4.47207985723  m  1  1  1  v  -2.4602340928e-05  -2.54120505301e-05  6.37272349724e-05
4.68978106889  4.5723771073  4.45430697183  m  1  1  1  v  4.75924329625e-05  4.70840044982e-05  -2.23257699486e-05
1.5514036566  6.40149960082  6.97503510135  m  1  1  1  v  -4.93671056398e-05  5.65543139957e-05  5.98335135065e-05
-1.57159677965  6.40512104681  6.99973554424  m  1  1  1  v  3.89978628582e-05  -3.1159385664e-05  2.32768776533e-05
0.00218514629481  3.6832664653  7.03227136071  m  1  1  1  v  -3.89061135847e-05  2.41624980458e-05  7.0394117947e-06
3.13022548462  1.91026171256  9.61821631774  m  1  1  1  v  2.3461407892e-05  -4.56840597088e-05  6.14269478324e-07
6.27705774188  1.91391627709  9.60725131203  m  1  1  1  v  -4.13939429452e-05  -1.0535026747e-05  1.99978088189e-05
4.68900180859  4.63371659048  9.58280153885  m  1  1  1  v  3.34761223275e-06  -2.0306499026e-05  -3.42453865083e-05
1.57362023645  6.35756479578  1.86722023373  m  1  1  1  v  -1.90023527478e-05  6.25243107546e-05  6.97428300338e-05
-1.56701483637  6.34781253732  1.85546239002  m  1  1  1  v  3.04790471808e-05  -4.47570255169e-05  3.52521851059e-05
0.0118661700769  3.64695698828  1.88456256788  m  1  1  1  v  -3.61640007638e-05  -1.8604412712e-05  -4.22262413575e-05
