ATOMIC_SPECIES
Si 28.085 Si_ONCV_PBE-1.0.upf
C 12.011 C_ONCV_PBE-1.0.upf

LATTICE_CONSTANT
1.8897261254578281

LATTICE_VECTORS
9.044453962152355 0.0 0.0 
-4.4582704905000865 8.15923502294512 0.0 
0.006142150595793807 -0.2527374752583041 10.112945065888413 

ATOMIC_POSITIONS
Cartesian    # Cartesian(Unit is LATTICE_CONSTANT)
Si
0.0
36
0.007853474860 1.762681580733 2.563961213411 1 1 1
3.137133842760 7.097634328228 2.627346679864 1 1 1
-3.066460740668 7.143214948645 2.624717699209 1 1 1
4.675785606827 6.184173672447 5.159034004203 1 1 1
1.547316039225 0.821948102002 5.092306653056 1 1 1
7.768637379363 0.812678902940 5.082880285467 1 1 1
0.020220782860 1.680987173115 7.645587273283 1 1 1
3.139432666802 7.059849718406 7.721168529921 1 1 1
-3.057629713000 7.060858990754 7.719153279512 1 1 1
4.674443924771 6.111331839051 10.237769057404 1 1 1
1.564179868317 0.763506675967 10.180392403150 1 1 1
7.754912883725 0.730762255794 10.182635381491 1 1 1
-1.539466276401 4.444815672362 2.607461515812 1 1 1
1.559711105489 4.430923929133 2.594793630623 1 1 1
0.039412671538 7.124999724282 2.626780561070 1 1 1
6.210882369222 3.495444944501 5.132377217934 1 1 1
3.106999855441 3.498331538075 5.127473173266 1 1 1
4.662502842147 0.815086289563 5.104071694073 1 1 1
-1.536179483600 4.383462564521 7.678323900657 1 1 1
1.562673369874 4.369294368378 7.699661530161 1 1 1
0.030335808845 7.067628081644 7.706636600931 1 1 1
6.217684981642 3.441937067983 10.205157850759 1 1 1
3.122059362947 3.440709811945 10.199936295937 1 1 1
4.652330809403 0.739040818102 10.177081635055 1 1 1
3.110258092049 1.735346444283 2.547284315991 1 1 1
6.198079817730 1.731599834382 2.559581817497 1 1 1
4.656282684182 4.419017775123 2.600516450023 1 1 1
1.576627286950 6.193451493429 5.161254506605 1 1 1
-1.522318286160 6.201880449346 5.146796654003 1 1 1
0.019764258935 3.503579096588 5.129664791311 1 1 1
3.108638124396 1.676779644137 7.644089641721 1 1 1
6.211370475048 1.668701566319 7.635789604208 1 1 1
4.672840485061 4.369149998287 7.665019168935 1 1 1
1.571214453018 6.120985813919 10.253461219698 1 1 1
-1.530061305713 6.135924674448 10.236687705629 1 1 1
0.023454348264 3.454839212496 10.210068927805 1 1 1
C
0.0
36
0.007631689394 1.729740351451 4.466522865179 1 1 1
3.124321367992 7.090873570054 4.547237859041 1 1 1
-3.080032807832 7.096037695073 4.536977809349 1 1 1
4.678333445219 6.162366294952 7.061725843536 1 1 1
1.540881097787 0.816571003175 7.004967584033 1 1 1
7.765792834883 0.783438186511 7.007584290275 1 1 1
0.010543713907 1.679586834526 9.561555007414 1 1 1
3.125624029813 7.027656226614 9.632761929653 1 1 1
-3.057170338106 7.045413804051 9.609423195040 1 1 1
4.694487627584 6.213681522704 1.986418928085 1 1 1
1.559375073183 0.855032127492 1.926626319340 1 1 1
7.766849877911 0.834478037483 1.917559366847 1 1 1
-1.532237346578 4.432551499688 4.521987428770 1 1 1
1.575721766348 4.416103457403 4.514624343910 1 1 1
0.034150802501 7.115118737174 4.545499672829 1 1 1
6.214606110841 3.463430787199 7.041216577573 1 1 1
3.109479634285 3.476051483414 7.033481242155 1 1 1
4.660051410834 0.783261457444 7.007074410570 1 1 1
-1.532832789563 4.358707288057 9.591850571677 1 1 1
1.578859875769 4.356709870257 9.602062370710 1 1 1
0.026080587541 7.047327439176 9.622970154727 1 1 1
6.226540641593 3.534388165442 1.950533084632 1 1 1
3.104769225537 3.540556426988 1.954035533231 1 1 1
4.644759029444 0.854176575941 1.922435947571 1 1 1
3.097037255652 1.724696240766 4.481739588200 1 1 1
6.210283961649 1.715689078108 4.473267150979 1 1 1
4.654362276070 4.389239172870 4.525978279225 1 1 1
1.572699837002 6.173336111137 7.069762170079 1 1 1
-1.528553873815 6.174835186103 7.085855369162 1 1 1
0.012114407008 3.484522299606 7.037906620976 1 1 1
3.121457859914 1.657104384222 9.545917420682 1 1 1
6.212737697983 1.652469904545 9.563872024267 1 1 1
4.664312635098 4.331500234622 9.588591107060 1 1 1
1.578322834920 6.237770620684 1.990258157375 1 1 1
-1.529393065647 6.235133312024 1.993174645052 1 1 1
0.006603330730 3.553559542540 1.959694375863 1 1 1

NUMERICAL_ORBITAL
Si_gga_9au_100Ry_3s3p2d.orb
C_gga_9au_100Ry_3s3p2d.orb
