ATOMIC_SPECIES
Si 28.085 Si_ONCV_PBE-1.0.upf
C 12.011 C_ONCV_PBE-1.0.upf

LATTICE_CONSTANT
1.8897261254578281

LATTICE_VECTORS
8.685161207870797 0.0 0.0 
-0.11304164137991145 8.549955514462955 0.0 
-0.180736617228541 -0.10329606301926698 8.65407157712898 

ATOMIC_POSITIONS
Cartesian    # Cartesian(Unit is LATTICE_CONSTANT)
Si
0.0
32
3.257073265331 1.097576073787 3.330020871182 1 1 1
3.209721504906 1.084045531946 7.722539407756 1 1 1
3.224563730397 5.485336179698 3.360504406764 1 1 1
3.179922623139 5.465631035549 7.755033374894 1 1 1
7.642577013209 1.126673672989 3.382631014454 1 1 1
7.597627794793 1.105057914552 7.771243820552 1 1 1
7.615289383756 5.523974120382 3.407872541170 1 1 1
7.569908148278 5.488240089423 7.788692175543 1 1 1
3.271718427449 3.308869315697 1.164919634762 1 1 1
3.216335300471 3.281282485327 5.544654649397 1 1 1
3.238709187745 7.696886572752 1.177278164676 1 1 1
3.187354249954 7.668769844761 5.562323444996 1 1 1
7.649928376342 3.345098091304 1.187365830371 1 1 1
7.609857116249 3.308063018849 5.588785911103 1 1 1
7.617947114614 7.729802060381 1.228743035575 1 1 1
7.582959835161 7.707901178114 5.615229036277 1 1 1
1.090695276205 1.100776807649 1.108516539363 1 1 1
1.040386795804 1.069905053066 5.512122637242 1 1 1
1.058226950230 5.493648640781 1.141038730838 1 1 1
1.001892400139 5.462540306977 5.531768263543 1 1 1
5.463889885111 1.120733338540 1.164318206674 1 1 1
5.428429442485 1.104127466841 5.556072345640 1 1 1
5.441586336745 5.519900407270 1.186475784444 1 1 1
5.404622225374 5.501153031483 5.572236385580 1 1 1
1.033344599036 3.284107287873 3.323373619357 1 1 1
0.994793771466 3.259239783546 7.723575636899 1 1 1
1.016794571729 7.672949662174 3.347620001066 1 1 1
0.972017897663 7.636068583409 7.748003038096 1 1 1
5.429615885673 3.303731425365 3.367676649950 1 1 1
5.387799064658 3.282006757868 7.761055719209 1 1 1
5.407215109628 7.704279684266 3.398496423492 1 1 1
5.351894452202 7.676695519221 7.784644534488 1 1 1
C
0.0
32
8.788608119549 0.068394779504 0.092872704798 1 1 1
8.736920452161 0.033790037489 4.483931487750 1 1 1
8.754621142914 4.451835779063 0.127978945733 1 1 1
8.701892324346 4.418324689380 4.511719645111 1 1 1
4.396998334607 0.024139127119 0.039959862801 1 1 1
4.352001988247 0.004322521680 4.434943971143 1 1 1
4.369557876775 4.423762096446 0.077482348621 1 1 1
4.315511883498 4.389950026186 4.466099581197 1 1 1
8.743297036624 2.234661583819 2.305853300909 1 1 1
8.695837590282 2.212138672693 6.684206013839 1 1 1
8.716389525105 6.633938713021 2.334171886016 1 1 1
8.675534440429 6.598888317824 6.711904653265 1 1 1
4.352792244460 2.204921165732 2.255499108718 1 1 1
4.318767460189 2.188577711292 6.644833649745 1 1 1
4.327067965246 6.597692970091 2.293160817921 1 1 1
4.276145407422 6.573039586386 6.675987174585 1 1 1
2.174992140157 0.001243079609 2.230199451591 1 1 1
2.121741217348 -0.020035222463 6.616038598202 1 1 1
2.145527558854 4.388298677604 2.250756531336 1 1 1
2.107966632715 4.368012810522 6.636951588101 1 1 1
6.559093013761 0.032262966640 2.262654118628 1 1 1
6.521311831691 0.003049878025 6.654996269207 1 1 1
6.534291429171 4.425040152829 2.286591104209 1 1 1
6.494565777850 4.390272882668 6.682992511916 1 1 1
2.176627445682 2.209458224717 0.032186902594 1 1 1
2.138243342309 2.187272631857 4.426068220632 1 1 1
2.160038777215 6.600185504869 0.062778138041 1 1 1
2.107813539419 6.572667101294 4.449958010440 1 1 1
6.580989210542 2.231487217616 0.079883341830 1 1 1
6.523784176844 2.208992210688 4.478251041063 1 1 1
6.548050207340 6.626441503376 0.115731894255 1 1 1
6.496778990138 6.602816301106 4.506001075361 1 1 1

NUMERICAL_ORBITAL
Si_gga_9au_100Ry_3s3p2d.orb
C_gga_9au_100Ry_3s3p2d.orb
