INPUT_PARAMETERS
calculation scf
ecutwfc 100.000000
scf_thr 1.000000e-06
scf_nmax 100
basis_type lcao
dft_functional pbe
gamma_only 1
mixing_type broyden
mixing_beta 0.400000
symmetry 0
nspin 1
smearing_method fixed
smearing_sigma 0.001000
cal_force 1
cal_stress 0
out_mat_hs 1
out_bandgap 1

deepks_scf 1
deepks_model model.ptg
