ATOMIC_SPECIES
Si 28.085 Si_ONCV_PBE-1.0.upf upf201
C 12.011 C_ONCV_PBE-1.0.upf upf201

NUMERICAL_ORBITAL
Si_gga_9au_100Ry_3s3p2d.orb
C_gga_9au_100Ry_3s3p2d.orb

LATTICE_CONSTANT
1.88972612546

LATTICE_VECTORS
8.68516120787 0 0 #latvec1
-0.11304164138 8.54995551446 0 #latvec2
-0.180736617229 -0.103296063019 8.65407157713 #latvec3

ATOMIC_POSITIONS
Cartesian

Si #label
0 #magnetism
32 #number of atoms
3.25707326533  1.09757607378  3.33002087117  m  1  1  1  v  2.01770079589e-05  -6.57608105145e-06  1.39095932127e-05
3.2097215049  1.08404553194  7.72253940776  m  1  1  1  v  8.30615591861e-06  -1.58144801691e-05  2.77912654796e-05
3.22456373039  5.48533617969  3.36050440677  m  1  1  1  v  -5.11394045277e-05  1.26380563744e-05  -1.14840056858e-05
3.17992262314  5.46563103555  7.7550333749  m  1  1  1  v  4.96141886441e-05  -5.51006930217e-05  4.26432159899e-06
7.64257701322  1.12667367299  3.38263101445  m  1  1  1  v  1.3981931597e-05  3.70634720726e-05  -2.74168264091e-05
7.59762779479  1.10505791454  7.77124382056  m  1  1  1  v  -7.73241070022e-08  -6.90050982369e-06  6.15865379865e-06
7.61528938375  5.52397412039  3.40787254117  m  1  1  1  v  -3.58965021797e-05  -5.97242840941e-06  -2.11758762705e-07
7.56990814828  5.48824008943  7.78869217554  m  1  1  1  v  2.34993472503e-05  2.34035127965e-05  -3.99428281672e-05
3.27171842745  3.30886931569  1.16491963477  m  1  1  1  v  4.81841960591e-05  1.20144715974e-05  -1.56858076568e-06
3.21633530047  3.28128248532  5.54465464939  m  1  1  1  v  4.06927322086e-06  -1.6765463499e-05  2.32956136015e-05
3.23870918774  7.69688657275  1.17727816467  m  1  1  1  v  -3.95542596574e-06  4.13295679698e-05  -7.14952199395e-06
3.18735424995  7.66876984476  5.56232344499  m  1  1  1  v  1.46951061928e-05  -3.1339250761e-05  -2.41910611794e-05
7.64992837635  3.3450980913  1.18736583038  m  1  1  1  v  -6.47526364639e-06  -1.96149755154e-05  -2.81589208966e-05
7.60985711626  3.30806301885  5.5887859111  m  1  1  1  v  6.34691779131e-06  2.19435895493e-05  -9.08215779425e-06
7.61794711462  7.72980206038  1.22874303558  m  1  1  1  v  -9.59226192736e-06  -1.59733164086e-05  -4.43537373568e-05
7.58295983516  7.70790117811  5.61522903628  m  1  1  1  v  -5.22182108639e-07  -1.40244338753e-05  3.22663412498e-05
1.09069527621  1.10077680764  1.10851653937  m  1  1  1  v  -3.92118564325e-06  5.45610148414e-05  -4.34923931481e-07
1.0403867958  1.06990505306  5.51212263724  m  1  1  1  v  -2.20090657927e-05  -5.3545044529e-07  1.69975370252e-05
1.05822695024  5.49364864077  1.14103873084  m  1  1  1  v  2.00978039164e-07  6.24659718675e-06  -2.38537202989e-05
1.00189240013  5.46254030697  5.53176826354  m  1  1  1  v  1.69819284491e-05  3.52999992801e-05  -3.60001398044e-05
5.46388988511  1.12073333854  1.16431820667  m  1  1  1  v  4.89594820294e-06  -2.0523317423e-05  -5.42088695133e-06
5.42842944249  1.10412746683  5.55607234565  m  1  1  1  v  1.76307795907e-05  2.66566218539e-05  -1.40513262844e-05
5.44158633675  5.51990040726  1.18647578445  m  1  1  1  v  -1.39452949617e-05  1.09830283351e-05  -2.84603737904e-05
5.40462222537  5.50115303149  5.57223638557  m  1  1  1  v  2.5907775622e-05  1.544598437e-05  1.18033720827e-06
1.03334459903  3.28410728787  3.32337361935  m  1  1  1  v  2.15920527027e-06  2.49228455946e-05  -4.20510260939e-06
0.994793771473  3.25923978355  7.72357563689  m  1  1  1  v  1.17880211309e-05  -7.82244256971e-06  2.94142589223e-05
1.01679457173  7.67294966217  3.34762000106  m  1  1  1  v  -1.17780439914e-06  1.69858240707e-05  -3.73185656953e-06
0.972017897667  7.63606858341  7.7480030381  m  1  1  1  v  -4.55736898023e-05  5.10088508439e-05  -2.49860542668e-05
5.42961588567  3.30373142536  3.36767664995  m  1  1  1  v  1.22971176603e-05  -3.47424892603e-05  2.40722837765e-05
5.38779906466  3.28200675787  7.76105571921  m  1  1  1  v  -2.49934501961e-05  -5.18425507666e-06  -3.9190123572e-05
5.40721510962  7.70427968426  3.39849642349  m  1  1  1  v  -2.88503001617e-05  -1.29233618409e-05  3.42987239032e-05
5.35189445219  7.67669551922  7.78464453449  m  1  1  1  v  -6.06606577587e-05  1.41101308693e-06  3.926419669e-05

C #label
0 #magnetism
32 #number of atoms
0.103446911684  0.0683947795047  0.0928727047964  m  1  1  1  v  5.14033805791e-05  -3.53975179349e-05  5.01615598597e-05
0.051759244297  0.0337900374877  4.48393148775  m  1  1  1  v  -3.49564946104e-05  -2.72899728935e-05  -3.96639917282e-05
0.069459935038  4.45183577906  0.127978945728  m  1  1  1  v  1.11855563644e-05  -5.54331374466e-05  -2.85202011965e-05
0.0167311164803  4.41832468938  4.51171964511  m  1  1  1  v  1.02670149018e-05  -1.13812066724e-05  9.17421495083e-06
4.3969983346  0.0241391271201  0.0399598628051  m  1  1  1  v  -3.4564990281e-05  2.16206945678e-05  -2.69083881351e-05
4.35200198824  0.00432252168254  4.43494397114  m  1  1  1  v  -6.61145009469e-06  -2.37718539561e-05  -2.21947894974e-05
4.36955787677  4.42376209645  0.0774823486166  m  1  1  1  v  2.42805038455e-05  2.72167701778e-05  1.51302756405e-06
4.3155118835  4.38995002619  4.4660995812  m  1  1  1  v  8.7689095425e-07  2.86096704786e-05  4.79244357726e-05
0.0581358287501  2.23466158381  2.3058533009  m  1  1  1  v  -6.32455245672e-06  -2.95111270991e-05  -7.52984863861e-06
0.0106763824187  2.21213867269  6.68420601384  m  1  1  1  v  4.28953101311e-05  1.90035897295e-05  5.74391270615e-05
0.0312283172399  6.63393871303  2.33417188601  m  1  1  1  v  5.99544140987e-06  -4.4977418739e-05  -4.45290602256e-05
-0.00962676743567  6.59888831783  6.71190465327  m  1  1  1  v  -2.17049546518e-05  -7.70098582005e-05  2.80687337577e-05
4.35279224447  2.20492116573  2.25549910871  m  1  1  1  v  7.8077306335e-05  -4.91752671965e-05  1.00554887098e-05
4.3187674602  2.18857771129  6.64483364974  m  1  1  1  v  -3.2330219295e-05  9.54760314657e-06  6.06049947329e-05
4.32706796524  6.59769297009  2.29316081791  m  1  1  1  v  1.09070153235e-08  4.06399991487e-05  5.07395758176e-05
4.27614540742  6.57303958639  6.67598717458  m  1  1  1  v  1.92861628598e-05  4.80724403036e-06  9.74149433452e-07
2.17499214016  0.0012430796156  2.23019945158  m  1  1  1  v  7.28418113835e-05  7.96953246256e-07  -1.48459162896e-05
2.12174121735  -0.0200352224586  6.6160385982  m  1  1  1  v  5.35786845957e-06  3.08828604155e-05  -4.98106218971e-05
2.14552755886  4.3882986776  2.25075653134  m  1  1  1  v  1.5888781866e-05  -4.7517400958e-05  4.30355136038e-05
2.10796663272  4.36801281052  6.6369515881  m  1  1  1  v  -4.84089564358e-05  -2.56876038298e-05  -4.50283348848e-05
6.55909301376  0.0322629666345  2.26265411863  m  1  1  1  v  -3.26623807208e-05  9.87912378403e-06  -4.73535894507e-05
6.52131183168  0.00304987802424  6.65499626921  m  1  1  1  v  1.72878384077e-05  2.54460938929e-06  1.72216041491e-05
6.53429142916  4.42504015283  2.28659110421  m  1  1  1  v  -7.52639675946e-05  1.62555048001e-05  1.16192960044e-05
6.49456577784  4.39027288267  6.68299251192  m  1  1  1  v  -3.08144377278e-05  -2.69444770293e-05  9.29187560716e-05
2.17662744568  2.20945822472  0.0321869025929  m  1  1  1  v  1.77852848625e-05  -7.08398904615e-07  -1.82397431004e-05
2.13824334231  2.18727263185  4.42606822063  m  1  1  1  v  2.79222341792e-05  -6.29508099695e-05  3.99229741533e-05
2.16003877721  6.60018550487  0.0627781380466  m  1  1  1  v  1.61708984036e-05  -1.70515722088e-05  7.68769641182e-05
2.10781353943  6.5726671013  4.44995801044  m  1  1  1  v  -1.54466266158e-05  -4.75494084166e-06  -7.56634806296e-05
6.58098921055  2.23148721762  0.0798833418223  m  1  1  1  v  1.4387864644e-05  -3.11479706246e-05  3.06544237109e-06
6.52378417684  2.20899221068  4.47825104107  m  1  1  1  v  -2.4696192286e-05  -2.63961180814e-05  6.35710686503e-05
6.54805020734  6.62644150338  0.115731894261  m  1  1  1  v  4.6622299377e-05  4.52199978439e-05  -2.14374462784e-05
6.49677899014  6.60281630111  4.50600107537  m  1  1  1  v  -4.9160368437e-05  5.45753590777e-05  5.97246082081e-05
