ATOMIC_SPECIES
Si 28.085 Si_ONCV_PBE-1.0.upf upf201
C 12.011 C_ONCV_PBE-1.0.upf upf201

NUMERICAL_ORBITAL
Si_gga_9au_100Ry_3s3p2d.orb
C_gga_9au_100Ry_3s3p2d.orb

LATTICE_CONSTANT
1.88972612546

LATTICE_VECTORS
8.68516120787 0 0 #latvec1
-0.11304164138 8.54995551446 0 #latvec2
-0.180736617229 -0.103296063019 8.65407157713 #latvec3

ATOMIC_POSITIONS
Cartesian

Si #label
0 #magnetism
32 #number of atoms
3.25348094474  1.09444419273  3.33180360515  m  1  1  1  v  3.75767449255e-05  -5.62866402204e-05  9.43694897181e-06
3.21190769211  1.09187954678  7.72068180657  m  1  1  1  v  -4.40831399239e-05  0.000122516524359  3.51196391207e-05
3.21797660846  5.48185620096  3.36097493548  m  1  1  1  v  7.65767057638e-05  -9.22499530235e-05  5.34200813098e-05
3.17075949404  5.46846976972  7.75688162096  m  1  1  1  v  -0.000181229116302  7.31128145295e-05  4.00288780225e-06
7.63947765128  1.13548426813  3.373513306  m  1  1  1  v  -6.80954308124e-05  -2.39360219303e-05  6.65535563943e-06
7.59750154365  1.10006248455  7.76221421142  m  1  1  1  v  4.18085652963e-05  -1.78817811799e-05  1.67374720253e-05
7.61148457887  5.52588509307  3.41089583991  m  1  1  1  v  -0.000106563582746  -7.39285805319e-05  0.000116441610289
7.57276092151  5.49972923133  7.78006622276  m  1  1  1  v  0.000181379994452  0.000115292027019  -0.000167716908794
3.26123703162  3.29921424981  1.17097860481  m  1  1  1  v  -0.00016555552121  -0.000164905455927  -2.33255726347e-05
3.21910386889  3.2812467267  5.53575395367  m  1  1  1  v  -7.68553711815e-06  -4.17436925438e-05  1.15692567595e-05
3.23326542325  7.68836553414  1.17996777545  m  1  1  1  v  -0.000141929216844  -7.21581306702e-05  0.000174773445477
3.1902212304  7.65928392547  5.56047931323  m  1  1  1  v  8.41811605881e-05  -9.11124112779e-05  5.1362696676e-05
7.64663354489  3.34563329405  1.19272088197  m  1  1  1  v  -7.07919208627e-05  2.31318208189e-05  -5.05942326306e-05
7.60705457019  3.30952754817  5.58584701288  m  1  1  1  v  -3.54572469742e-05  8.2789698941e-05  2.24895438914e-05
7.61986447562  7.7230199694  1.22663890615  m  1  1  1  v  1.30146283126e-05  -4.59223969385e-05  -4.60991757638e-07
7.59094733372  7.7013997951  5.61763672564  m  1  1  1  v  -4.29784403509e-08  1.82284065881e-05  -5.63033998083e-05
1.09501061221  1.11144036491  1.11722380467  m  1  1  1  v  9.95253243582e-05  0.000243742351871  0.000139904177304
1.03890785688  1.08235791264  5.5210895954  m  1  1  1  v  -8.15583135618e-06  0.000219679716716  8.26421681655e-06
1.05917836731  5.49643861497  1.15095314919  m  1  1  1  v  -0.000160807154157  2.89011268451e-05  7.80580014445e-05
1.00015784236  5.4730680081  5.54071376155  m  1  1  1  v  -0.000172207394478  2.88000484776e-05  8.96291809513e-06
5.4655315861  1.11512172771  1.16011995696  m  1  1  1  v  3.86682138918e-05  -9.10794300161e-05  -5.54360483014e-06
5.42957494829  1.11245880355  5.55624842461  m  1  1  1  v  -2.61808465398e-05  -1.75946384975e-05  -6.49048723302e-05
5.44135189326  5.51426121139  1.18720518058  m  1  1  1  v  9.31238701422e-06  -8.00597505281e-05  -4.31867729582e-05
5.39834501442  5.507358306  5.56514514477  m  1  1  1  v  -4.33099645897e-05  0.000117558817182  4.5308673115e-05
1.03792274531  3.28649768649  3.33326230018  m  1  1  1  v  -2.18489117434e-06  0.000177005900779  6.22070508049e-05
0.998291071048  3.26348776191  7.72937960743  m  1  1  1  v  -3.08869796329e-05  -3.67860073868e-05  -0.000126245836908
1.01234404039  7.67366134535  3.35313354839  m  1  1  1  v  -6.55728080806e-05  -3.47341352999e-05  -0.000107037890898
0.979889094725  7.62573111305  7.74233646416  m  1  1  1  v  1.46851032338e-05  -5.5054898833e-05  5.38720631682e-05
5.43471919207  3.30377211429  3.36953211488  m  1  1  1  v  6.16209263765e-06  2.44551383486e-05  -0.000152845377646
5.38906545968  3.28624939232  7.7527457288  m  1  1  1  v  5.40418960947e-05  5.21098301413e-05  -0.000155418987816
5.40867535119  7.70531732702  3.39717176873  m  1  1  1  v  5.89468508182e-05  1.08089153981e-05  -1.15363886792e-05
5.34855738453  7.67147716529  7.78059656168  m  1  1  1  v  3.43212689716e-05  -0.000241146603123  -8.74880660932e-05

C #label
0 #magnetism
32 #number of atoms
0.0967855167484  0.0802679947249  0.0954803469219  m  1  1  1  v  -4.89328012633e-05  0.000131947895958  0.000159876966019
0.0455506659246  0.0467638815731  4.47614452476  m  1  1  1  v  0.00021369751485  0.00010401333813  -7.41266924051e-05
0.0541422506278  4.44554219167  0.124977440578  m  1  1  1  v  -6.09921605105e-05  -6.85211026078e-05  -0.000135478922806
-0.00101033901069  4.41408733711  4.50749952374  m  1  1  1  v  -8.19627716083e-06  -0.000122197753924  6.79076098367e-05
4.39474140883  0.0419931344061  0.0464767734889  m  1  1  1  v  -0.000134723008851  0.000254810688267  0.000217382864285
4.35706984853  0.0204309477586  4.4450866561  m  1  1  1  v  6.93905984952e-06  -9.02284201798e-05  9.22749213913e-05
4.36175504438  4.41878687072  0.0791705729578  m  1  1  1  v  -0.00022118874686  -0.000183869874338  -0.000168461172577
4.31647550232  4.39560916117  4.45988842053  m  1  1  1  v  -0.000128640576895  0.000275140431271  0.000186830792617
0.050755953668  2.23343029389  2.30535578645  m  1  1  1  v  -3.18917984984e-05  -1.30742403414e-05  -0.000116321661027
0.00443357307409  2.20755559578  6.68581958705  m  1  1  1  v  -7.00686934413e-05  6.80411156289e-05  -3.12476755143e-05
0.0192811046228  6.62644975928  2.32443198146  m  1  1  1  v  -0.000133326788778  8.3450572319e-06  6.97423762806e-05
-0.0108408488936  6.5876358434  6.70107161839  m  1  1  1  v  -1.80150909447e-05  -9.12598827479e-05  9.98440653887e-05
4.34773162546  2.20866462132  2.25937397253  m  1  1  1  v  5.30724492872e-05  -0.000107064972784  0.000145697565689
4.3194218811  2.20351117743  6.63712620119  m  1  1  1  v  -0.000119711373781  -0.000101835599298  -0.000277446575204
4.31986127726  6.58611530266  2.28280963776  m  1  1  1  v  3.38681712885e-05  -0.000220871754439  0.000215710161524
4.27711335724  6.57350196349  6.66622001942  m  1  1  1  v  -0.000182859244058  -0.00022171213256  -0.00033933742204
2.173087477  0.0156221111257  2.22077553474  m  1  1  1  v  -4.5353597194e-05  4.12204465005e-06  -0.00014585813976
2.11819319851  -0.000630216527302  6.61931341929  m  1  1  1  v  8.66689450041e-05  0.000207710480832  -0.000230142549579
2.14087457491  4.38255785786  2.25260870274  m  1  1  1  v  -0.000103016772571  -0.000223919769791  0.000167366024008
2.11907264401  4.369673292  6.6291068722  m  1  1  1  v  -0.000188937007271  9.83993680542e-05  -6.74852512757e-05
6.55765191882  0.051637758945  2.27611288779  m  1  1  1  v  -0.000108178768521  0.000111366056432  -3.03422247797e-05
6.53253740162  0.00439204460776  6.6510365342  m  1  1  1  v  -2.25172279805e-05  0.000185110841222  -4.05395081308e-05
6.54817428185  4.41805026114  2.27834304775  m  1  1  1  v  0.000143196669333  8.79438036798e-05  -0.000120024124074
6.48873147612  4.40056501961  6.68118119224  m  1  1  1  v  -5.17286359663e-05  0.000318743748466  0.00012750872033
2.18429057458  2.20395536447  0.0356367442216  m  1  1  1  v  6.65765906557e-05  7.87430695672e-06  1.00841709895e-05
2.14128033006  2.19021820121  4.41576118089  m  1  1  1  v  -0.000103483024282  -0.000202383098158  9.05672544041e-05
2.15862487643  6.60034581464  0.0774848057797  m  1  1  1  v  -5.49975765908e-05  6.52768929212e-05  1.54913794423e-05
2.10810029737  6.57077368002  4.45090728391  m  1  1  1  v  0.000118113193538  0.00011021987521  7.58556354032e-05
6.57913132357  2.23759877021  0.0917966057706  m  1  1  1  v  -9.0548503489e-05  -1.66000917612e-05  0.000254827213137
6.52034847988  2.20587121565  4.47233747779  m  1  1  1  v  8.07301754908e-05  -0.000163840343195  -4.91136562267e-05
6.54101585388  6.63412821614  0.125961073049  m  1  1  1  v  1.33085368179e-05  3.71985977868e-05  -1.12850830898e-05
6.50947880232  6.60558512429  4.49719674331  m  1  1  1  v  -2.55937147055e-05  4.31253686448e-05  2.3599488336e-05
