ATOMIC_SPECIES
Si 28.085 Si_ONCV_PBE-1.0.upf
C 12.011 C_ONCV_PBE-1.0.upf

LATTICE_CONSTANT
1.8897261254578281

LATTICE_VECTORS
8.831629890498505 0.0 0.0 
-0.17341783815354136 8.699649097494321 0.0 
-0.050741430119505125 0.009800152216300954 8.63559292896278 

ATOMIC_POSITIONS
Cartesian    # Cartesian(Unit is LATTICE_CONSTANT)
Si
0.0
32
3.304966298089 1.161928788308 3.342273502406 1 1 1
3.285084960269 1.136887483001 7.778017654581 1 1 1
3.265739141756 5.574623180072 3.338349379350 1 1 1
3.233711969145 5.592638974831 7.764260224402 1 1 1
7.750384369688 1.193550602458 3.342510361858 1 1 1
7.746021952750 1.186412033661 7.777726971368 1 1 1
7.697546919767 5.618592028115 3.340657396485 1 1 1
7.682094138324 5.630434710458 7.784058389249 1 1 1
3.297062646967 3.355914477746 1.110853008882 1 1 1
3.262343987707 3.394045194157 5.546450816579 1 1 1
3.246614554574 7.804372645003 1.114355736884 1 1 1
3.232709857272 7.786370253858 5.561038102373 1 1 1
7.721369545877 3.404367419259 1.134385410965 1 1 1
7.722767768037 3.398020578864 5.566585066416 1 1 1
7.707660644730 7.829694557824 1.123306625884 1 1 1
7.671549267743 7.835066240662 5.568418883735 1 1 1
1.093016242919 1.125520719995 1.112229460439 1 1 1
1.065865543197 1.135776859918 5.542028073924 1 1 1
1.064217655823 5.542892402873 1.108053402776 1 1 1
1.037166906989 5.550311284342 5.526315898261 1 1 1
5.549816883937 1.172015752644 1.127340402637 1 1 1
5.517963940653 1.165766059648 5.556596862935 1 1 1
5.479003306277 5.582811654325 1.126880891796 1 1 1
5.477149415228 5.599091612673 5.566497150291 1 1 1
1.072253273436 3.341778523729 3.331569131710 1 1 1
1.054779196618 3.340444987708 7.770473370423 1 1 1
1.024760588550 7.779152974134 3.315728193205 1 1 1
1.011150502313 7.782806391361 7.757001123980 1 1 1
5.483674071186 3.375943777402 3.345824208326 1 1 1
5.493479636436 3.385446526855 7.763089687287 1 1 1
5.443634770695 7.820837380780 3.334342045613 1 1 1
5.452909747915 7.824332157010 7.777839292433 1 1 1
C
0.0
32
8.881306541847 0.080191428288 0.017702430538 1 1 1
8.851721580309 0.102447346421 4.456356409219 1 1 1
8.816666647277 4.529415320265 0.030180588420 1 1 1
8.820865485040 4.534917088494 4.460578752984 1 1 1
4.452760975751 0.038830542211 0.029369279928 1 1 1
4.425713929120 0.045069989876 4.450275430533 1 1 1
4.383585780286 4.491965370859 0.022249113659 1 1 1
4.381579291119 4.484313637460 4.440732736680 1 1 1
8.843252876240 2.320207994114 2.251280790733 1 1 1
8.814514022301 2.306150211032 6.683899374598 1 1 1
8.809256139391 6.742161097021 2.251381289861 1 1 1
8.781608889873 6.754175695404 6.671248318419 1 1 1
4.404290523563 2.265404233095 2.210522851200 1 1 1
4.391718333872 2.271011498902 6.667262806373 1 1 1
4.368092827666 6.695809167315 2.215581947916 1 1 1
4.348923012014 6.708851416071 6.646112103552 1 1 1
2.209202382379 0.016088739335 2.233045940725 1 1 1
2.187398998344 0.036012764179 6.664323876367 1 1 1
2.174791219103 4.457887731133 2.232863406132 1 1 1
2.154875121582 4.465026197605 6.647770026682 1 1 1
6.647276809305 0.071509766696 2.250869453968 1 1 1
6.636288834817 0.078190384392 6.654289653380 1 1 1
6.619463407194 4.501143811653 2.233785725041 1 1 1
6.593197665767 4.503112134823 6.663421984965 1 1 1
2.187743981166 2.230785907502 0.008135412796 1 1 1
2.189953013895 2.242034378796 4.431450277022 1 1 1
2.157949688486 6.667558695529 -0.006594789604 1 1 1
2.141520659110 6.665000963627 4.451040744239 1 1 1
6.629038738204 2.292110402955 0.022863561305 1 1 1
6.620730442381 2.279225016932 4.461393229750 1 1 1
6.585635951592 6.720033892028 0.022395608838 1 1 1
6.568095663858 6.721524275783 4.441469464518 1 1 1

NUMERICAL_ORBITAL
Si_gga_9au_100Ry_3s3p2d.orb
C_gga_9au_100Ry_3s3p2d.orb
