ATOMIC_SPECIES
Si 28.085 Si_ONCV_PBE-1.0.upf upf201
C 12.011 C_ONCV_PBE-1.0.upf upf201

NUMERICAL_ORBITAL
Si_gga_9au_100Ry_3s3p2d.orb
C_gga_9au_100Ry_3s3p2d.orb

LATTICE_CONSTANT
1.88972612546

LATTICE_VECTORS
8.49998647075 0 0 #latvec1
-0.153790136038 8.84829749464 0 #latvec2
0.178462633725 -0.0475802665186 8.65141330682 #latvec3

ATOMIC_POSITIONS
Cartesian

Si #label
0 #magnetism
32 #number of atoms
3.28919863325  1.10620906115  3.24204235977  m  1  1  1  v  -0.000161300438616  -6.17786635838e-05  0.000122079533538
3.33212829708  1.10594286386  7.57518598403  m  1  1  1  v  -1.95412360678e-05  2.73843538237e-05  -0.000216844724178
3.25895958594  5.4426478086  3.23104153949  m  1  1  1  v  0.000232105765794  -2.80280420635e-05  -0.000233161780707
3.2752318788  5.43724321764  7.58367187153  m  1  1  1  v  -0.000178156366795  -7.29224448301e-05  -1.6331944373e-06
7.61791402708  1.14943071521  3.18083028931  m  1  1  1  v  -7.40768185581e-07  4.62754897835e-05  -5.58601094493e-05
7.67147616795  1.12671618766  7.53454038639  m  1  1  1  v  0.000161624960469  -0.000271832499285  4.90536083762e-05
7.58304044105  5.48792370144  3.2029678523  m  1  1  1  v  0.000135327632985  -0.000171819533737  -0.000173820828504
7.65451452379  5.49946867237  7.52379267552  m  1  1  1  v  0.000140815366999  0.000129159102737  -7.47270646061e-05
3.23307037534  3.29046208416  1.06943699298  m  1  1  1  v  -0.000241713176378  0.000199474939763  0.000151405092668
3.28423369383  3.27638531765  5.41553227967  m  1  1  1  v  4.83677816292e-05  -0.000155726212286  0.000163405803958
3.18873039747  7.63108651776  1.09009000814  m  1  1  1  v  0.00012866946796  4.92797329252e-05  -0.00020335945765
3.26667182813  7.63875772941  5.42499563451  m  1  1  1  v  -8.60506358197e-05  1.80792547856e-05  0.000173076779316
7.58003174831  3.32285175728  1.00397836191  m  1  1  1  v  4.29330058377e-05  -0.000100901651479  -0.000167249163085
7.63712956766  3.31378614958  5.36476060895  m  1  1  1  v  0.000131111326033  3.06656068337e-05  8.87889848918e-05
7.54142071882  7.66134631193  1.03415056617  m  1  1  1  v  -0.000180364001185  -0.000250035962649  0.000143171001362
7.60014240464  7.67141023535  5.38124510209  m  1  1  1  v  8.77699506938e-05  0.000221820443208  -0.000113468603364
1.11089755036  1.11164533277  1.07438168065  m  1  1  1  v  0.000194691088589  -3.94616288967e-06  4.52673936071e-05
1.12665086179  1.09528203046  5.4353442006  m  1  1  1  v  3.75533045635e-05  0.000135677613118  -0.000151488362947
1.03316000954  5.43890959979  1.09861372431  m  1  1  1  v  -4.26672770456e-05  -8.57793675571e-05  6.2753548276e-05
1.1028459519  5.43799334366  5.43445577611  m  1  1  1  v  9.43536656404e-05  -4.29452040764e-05  -0.000100722271963
5.4415367996  1.1362388362  1.03792622637  m  1  1  1  v  -0.000119008194581  8.58436810694e-05  0.000254879833171
5.49323978036  1.11852633601  5.36361825288  m  1  1  1  v  1.5435186581e-05  2.44403670991e-05  -8.36272025903e-05
5.3991347807  5.46977768773  1.0430939938  m  1  1  1  v  0.000197324163314  8.98391906701e-05  -0.000190640041057
5.43679847082  5.47979091694  5.40504667222  m  1  1  1  v  1.43352852895e-05  -9.23909993199e-05  0.000157116582797
1.08769985969  3.27319399043  3.25753069918  m  1  1  1  v  -0.000170354338894  6.95790348541e-05  0.000195416069758
1.14320869338  3.24337676502  7.60709187323  m  1  1  1  v  -2.32759304971e-05  -0.000156477898397  3.4565474195e-05
1.05288551319  7.63027927024  3.25423291048  m  1  1  1  v  -0.000156913186483  5.79010154652e-05  7.140686328e-05
1.12287733506  7.59724854017  7.61506206877  m  1  1  1  v  0.000225016700924  4.07385689587e-05  -0.000123591424107
5.44836004714  3.28287336752  3.21191529145  m  1  1  1  v  4.14153391902e-05  -9.78729160177e-05  0.000129745244026
5.48443309543  3.28969617205  7.54641970613  m  1  1  1  v  -0.000202075109639  -6.91924984511e-05  7.99020009162e-05
5.40710820099  7.65574576609  3.21544424506  m  1  1  1  v  1.79207078497e-05  0.000192628931089  0.000184257077554
5.44228331239  7.64388876451  7.56589453565  m  1  1  1  v  -4.63632384051e-05  -0.000118647132523  -0.000111663686502

C #label
0 #magnetism
32 #number of atoms
0.375691361928  0.0350993509701  8.57254776454  m  1  1  1  v  -0.000316583310148  1.61387317205e-05  -7.44289780854e-06
0.24733475274  0.0598363434729  4.25258924522  m  1  1  1  v  -8.66286136674e-05  4.27227939685e-05  -0.000145825218402
0.296990195371  4.37866963659  8.58722846335  m  1  1  1  v  -0.000385182694217  0.00032787220005  2.31253693216e-05
0.20266425822  4.40162804414  4.28371058302  m  1  1  1  v  -7.1554741957e-05  0.00016775006638  0.00027796035937
4.50455333393  0.00184179487665  8.61382934267  m  1  1  1  v  0.000156687930153  0.000308105234328  0.000294449259983
4.40900678718  0.0141475595657  4.30988354299  m  1  1  1  v  0.000266622714268  7.36654302169e-05  0.000256679389345
4.45727266046  4.34866259021  8.60945825185  m  1  1  1  v  6.16624099465e-05  -0.000274661517467  0.000146145680757
4.34560841488  4.36569938415  4.29983015332  m  1  1  1  v  -0.00020728368948  -0.000103773771491  3.39581889288e-05
0.155603162947  2.26158303708  2.09721358255  m  1  1  1  v  -0.000165624222419  -9.53059207188e-05  0.000273630746586
0.21284985465  2.22646740364  6.4384846107  m  1  1  1  v  0.000107125606274  -0.000134130003791  8.0391406495e-05
0.149267855848  6.59143251273  2.10557454307  m  1  1  1  v  -9.15027273153e-05  0.000148957024156  -0.000343881347224
0.214627338601  6.58723261364  6.4668570845  m  1  1  1  v  -0.000108524830227  -0.000374041135957  0.000251293057221
4.34615814372  2.19441298594  2.15875853918  m  1  1  1  v  -0.000136525555714  -0.000115941848571  1.22313660328e-05
4.39318809175  2.17625651292  6.44002964042  m  1  1  1  v  -0.00015773486317  -6.3244806679e-05  -0.000278054999204
4.31536935809  6.52857060791  2.14338378116  m  1  1  1  v  -0.00041662083102  8.55444231976e-05  4.12911587207e-05
4.35771315189  6.53873223845  6.48836778406  m  1  1  1  v  0.000365661162542  -0.000188501735453  0.00019377896017
2.20099119924  -0.00621560754497  2.1622373135  m  1  1  1  v  0.000157697358387  0.000336404001258  0.000378318681156
2.23719605177  0.0209616789905  6.48667229986  m  1  1  1  v  -0.000216202747844  5.97548482878e-05  -0.000217649597755
2.15103557152  4.3580604334  2.19337085575  m  1  1  1  v  -0.000233276421378  5.48162218946e-05  0.00016162659119
2.21353186193  4.35551041334  6.47907511767  m  1  1  1  v  2.81288443828e-05  0.000221763257405  -0.000423142679087
6.55489290607  0.0575742218485  2.10713413651  m  1  1  1  v  8.33221244965e-05  0.0001692963562  0.000202204023427
6.62173901297  0.00813125008382  6.44058602954  m  1  1  1  v  0.00021157972272  -0.000311104597694  -0.00016554726025
6.5194821921  4.40487256271  2.13461119302  m  1  1  1  v  -5.2679925714e-05  7.69361498813e-05  0.000183153575944
6.53234423057  4.3975347913  6.4773469631  m  1  1  1  v  3.40546314545e-05  -0.000100105303858  9.76950052967e-05
2.32855590728  2.16532319512  8.62362936493  m  1  1  1  v  -0.000335800533182  1.4985067112e-05  -0.000297255266651
2.22203337426  2.17401376204  4.3290258517  m  1  1  1  v  0.000220714229951  -0.00014496075869  -3.658614455e-05
2.27699085834  6.50008608923  8.63308572892  m  1  1  1  v  -0.00010913374302  8.10214739703e-06  -0.000120462046122
2.15719120542  6.53220378228  4.32273473233  m  1  1  1  v  -0.000175064749222  0.000234156561882  -1.29267472012e-05
6.66374278058  2.17556225507  8.59450563304  m  1  1  1  v  5.03049527811e-05  2.14715854635e-05  4.19738559898e-05
6.54050464759  2.22466388842  4.27984778104  m  1  1  1  v  -0.000200976151068  -6.68411674212e-06  0.000256959617411
6.61328844763  6.53248270251  8.62139479097  m  1  1  1  v  -0.000175948702801  0.000105003570882  -4.36991394623e-06
6.52457419944  6.56138661507  4.31049612526  m  1  1  1  v  2.4113012031e-05  0.000284390652509  -0.000288952700846
