ATOMIC_SPECIES
Si 28.085 Si_ONCV_PBE-1.0.upf upf201
C 12.011 C_ONCV_PBE-1.0.upf upf201

NUMERICAL_ORBITAL
Si_gga_9au_100Ry_3s3p2d.orb
C_gga_9au_100Ry_3s3p2d.orb

LATTICE_CONSTANT
1.88972612546

LATTICE_VECTORS
8.49998647075 0 0 #latvec1
-0.153790136038 8.84829749464 0 #latvec2
0.178462633725 -0.0475802665186 8.65141330682 #latvec3

ATOMIC_POSITIONS
Cartesian

Si #label
0 #magnetism
32 #number of atoms
3.2887127956  1.1094198374  3.2304413348  m  1  1  1  v  2.01770079589e-05  -6.57608105145e-06  1.39095932127e-05
3.33380996036  1.09991912051  7.58105715906  m  1  1  1  v  8.30615591861e-06  -1.58144801691e-05  2.77912654796e-05
3.25067554193  5.45430534576  3.23549085312  m  1  1  1  v  -5.11394045277e-05  1.26380563744e-05  -1.14840056858e-05
3.28949676772  5.43548071881  7.58922960491  m  1  1  1  v  4.96141886441e-05  -5.51006930217e-05  4.26432159899e-06
7.63387624542  1.14450512446  3.18934424805  m  1  1  1  v  1.3981931597e-05  3.70634720726e-05  -2.74168264091e-05
7.67510702911  1.14290818125  7.53493863201  m  1  1  1  v  -7.73241070022e-08  -6.90050982369e-06  6.15865379865e-06
7.59321962326  5.49774230356  3.20174844335  m  1  1  1  v  -3.58965021797e-05  -5.97242840941e-06  -2.11758762705e-07
7.6461106351  5.48553070704  7.54861404824  m  1  1  1  v  2.34993472503e-05  2.34035127965e-05  -3.99428281672e-05
3.24959798593  3.29268841778  1.05868556641  m  1  1  1  v  4.81841960591e-05  1.20144715974e-05  -1.56858076568e-06
3.2824169211  3.28030018703  5.41102865274  m  1  1  1  v  4.06927322086e-06  -1.6765463499e-05  2.32956136015e-05
3.20728724244  7.62918284718  1.07959067518  m  1  1  1  v  -3.95542596574e-06  4.13295679698e-05  -7.14952199395e-06
3.25036594463  7.63023635179  5.4169979883  m  1  1  1  v  1.46951061928e-05  -3.1339250761e-05  -2.41910611794e-05
7.59085862294  3.31830794268  1.01499620244  m  1  1  1  v  -6.47526364639e-06  -1.96149755154e-05  -2.81589208966e-05
7.64398950923  3.31156395442  5.36229856545  m  1  1  1  v  6.34691779131e-06  2.19435895493e-05  -9.08215779425e-06
7.56054897668  7.67122701481  1.02521309625  m  1  1  1  v  -9.59226192736e-06  -1.59733164086e-05  -4.43537373568e-05
7.59049954964  7.65652898001  5.37573371531  m  1  1  1  v  -5.22182108639e-07  -1.40244338753e-05  3.22663412498e-05
1.08292356347  1.09851725669  1.071645114  m  1  1  1  v  -3.92118564325e-06  5.45610148414e-05  -4.34923931481e-07
1.1365535263  1.08099489313  5.43138971614  m  1  1  1  v  -2.20090657927e-05  -5.3545044529e-07  1.69975370252e-05
1.04883424464  5.4430332319  1.09343744888  m  1  1  1  v  2.00978039164e-07  6.24659718675e-06  -2.38537202989e-05
1.09725854831  5.42978344862  5.4382267313  m  1  1  1  v  1.69819284491e-05  3.52999992801e-05  -3.60001398044e-05
5.43648687095  1.14092565631  1.03507874914  m  1  1  1  v  4.89594820294e-06  -2.0523317423e-05  -5.42088695133e-06
5.48164211239  1.1244319507  5.38109309405  m  1  1  1  v  1.76307795907e-05  2.66566218539e-05  -1.40513262844e-05
5.39862124891  5.47146168912  1.05006064297  m  1  1  1  v  -1.39452949617e-05  1.09830283351e-05  -2.84603737904e-05
5.43827165857  5.46586117177  5.4004431674  m  1  1  1  v  2.5907775622e-05  1.544598437e-05  1.18033720827e-06
1.08589554525  3.26353880793  3.25994539894  m  1  1  1  v  2.15920527027e-06  2.49228455946e-05  -4.20510260939e-06
1.13018570881  3.25172400775  7.61384295331  m  1  1  1  v  1.17880211309e-05  -7.82244256971e-06  2.94142589223e-05
1.06092917466  7.61031626745  3.26641582682  m  1  1  1  v  -1.17780439914e-06  1.69858240707e-05  -3.73185656953e-06
1.09600936255  7.58567498702  7.62482595549  m  1  1  1  v  -4.55736898023e-05  5.10088508439e-05  -2.49860542668e-05
5.44368454097  3.29146949129  3.2096470551  m  1  1  1  v  1.22971176603e-05  -3.47424892603e-05  2.40722837765e-05
5.4883547553  3.29442872759  7.56148473164  m  1  1  1  v  -2.49934501961e-05  -5.18425507666e-06  -3.9190123572e-05
5.40448462998  7.64652878217  3.21266208096  m  1  1  1  v  -2.88503001617e-05  -1.29233618409e-05  3.42987239032e-05
5.44176316673  7.63754234951  7.58033534929  m  1  1  1  v  -6.06606577587e-05  1.41101308693e-06  3.926419669e-05

C #label
0 #magnetism
32 #number of atoms
0.376409780561  0.0295584986276  8.57093238837  m  1  1  1  v  5.14033805791e-05  -3.53975179349e-05  5.01615598597e-05
0.23858209733  0.066146458233  4.25239335364  m  1  1  1  v  -3.49564946104e-05  -2.72899728935e-05  -3.96639917282e-05
0.344060792797  4.36484596617  8.57034907905  m  1  1  1  v  1.11855563644e-05  -5.54331374466e-05  -2.85202011965e-05
0.203951805303  4.4180734927  4.27291907776  m  1  1  1  v  1.02670149018e-05  -1.13812066724e-05  9.17421495083e-06
4.53503649955  -0.0103832795952  8.60528514143  m  1  1  1  v  -3.4564990281e-05  2.16206945678e-05  -2.69083881351e-05
4.40178529104  0.0200618447926  4.30591511155  m  1  1  1  v  -6.61145009469e-06  -2.37718539561e-05  -2.21947894974e-05
4.48730606712  4.33432930881  8.61551474852  m  1  1  1  v  2.42805038455e-05  2.72167701778e-05  1.51302756405e-06
4.34987774769  4.37049405813  4.31159326516  m  1  1  1  v  8.7689095425e-07  2.86096704786e-05  4.79244357726e-05
0.184695101364  2.25633158111  2.08834937436  m  1  1  1  v  -6.32455245672e-06  -2.95111270991e-05  -7.52984863861e-06
0.245424249594  2.22957649821  6.44267494576  m  1  1  1  v  4.28953101311e-05  1.90035897295e-05  5.74391270615e-05
0.159736126044  6.59785418556  2.09799143589  m  1  1  1  v  5.99544140987e-06  -4.4977418739e-05  -4.45290602256e-05
0.207755443835  6.58227559255  6.44607044092  m  1  1  1  v  -2.17049546518e-05  -7.70098582005e-05  2.80687337577e-05
4.36018211698  2.20803011035  2.14664585327  m  1  1  1  v  7.8077306335e-05  -4.91752671965e-05  1.00554887098e-05
4.40028520557  2.19315016552  6.47988961377  m  1  1  1  v  -3.2330219295e-05  9.54760314657e-06  6.06049947329e-05
4.32165634522  6.54857524778  2.1434647671  m  1  1  1  v  1.09070153235e-08  4.06399991487e-05  5.07395758176e-05
4.35512231184  6.54101087136  6.49288559454  m  1  1  1  v  1.92861628598e-05  4.80724403036e-06  9.74149433452e-07
2.1959801883  0.0151434768307  2.15061417556  m  1  1  1  v  7.28418113835e-05  7.96953246256e-07  -1.48459162896e-05
2.231887305  -0.000588003274824  6.50311597231  m  1  1  1  v  5.35786845957e-06  3.08828604155e-05  -4.98106218971e-05
2.16327633743  4.35137246452  2.16218001483  m  1  1  1  v  1.5888781866e-05  -4.7517400958e-05  4.30355136038e-05
2.20012630228  4.34461724224  6.50512866185  m  1  1  1  v  -4.84089564358e-05  -2.56876038298e-05  -4.50283348848e-05
6.53799042617  0.0517399918654  2.10578783639  m  1  1  1  v  -3.26623807208e-05  9.87912378403e-06  -4.73535894507e-05
6.59495578692  0.0266123964914  6.45474923979  m  1  1  1  v  1.72878384077e-05  2.54460938929e-06  1.72216041491e-05
6.50292641833  4.40385383101  2.12658391791  m  1  1  1  v  -7.52639675946e-05  1.62555048001e-05  1.16192960044e-05
6.54733723412  4.38085877583  6.46958888708  m  1  1  1  v  -3.08144377278e-05  -2.69444770293e-05  9.29187560716e-05
2.33274959083  2.14566425797  8.63510420767  m  1  1  1  v  1.77852848625e-05  -7.08398904615e-07  -1.82397431004e-05
2.19847344849  2.17789989173  4.33347055648  m  1  1  1  v  2.79222341792e-05  -6.29508099695e-05  3.99229741533e-05
2.11839662452  6.53692050937  0.000885229308265  m  1  1  1  v  1.61708984036e-05  -1.70515722088e-05  7.68769641182e-05
2.15485219656  6.53148280772  4.33805279984  m  1  1  1  v  -1.54466266158e-05  -4.75494084166e-06  -7.56634806296e-05
6.68428316967  2.18210875661  8.5806561848  m  1  1  1  v  1.4387864644e-05  -3.11479706246e-05  3.06544237109e-06
6.55091618244  2.2197105386  4.28627782187  m  1  1  1  v  -2.4696192286e-05  -2.63961180814e-05  6.35710686503e-05
6.64437236091  6.52621539267  8.61047315399  m  1  1  1  v  4.6622299377e-05  4.52199978439e-05  -2.14374462784e-05
6.5148164258  6.56222459561  4.30321857383  m  1  1  1  v  -4.9160368437e-05  5.45753590777e-05  5.97246082081e-05
