ATOMIC_SPECIES
Si 28.085 Si_ONCV_PBE-1.0.upf upf201
C 12.011 C_ONCV_PBE-1.0.upf upf201

NUMERICAL_ORBITAL
Si_gga_9au_100Ry_3s3p2d.orb
C_gga_9au_100Ry_3s3p2d.orb

LATTICE_CONSTANT
1.88972612546

LATTICE_VECTORS
8.49998647075 0 0 #latvec1
-0.153790136038 8.84829749464 0 #latvec2
0.178462633725 -0.0475802665186 8.65141330682 #latvec3

ATOMIC_POSITIONS
Cartesian

Si #label
0 #magnetism
32 #number of atoms
3.28509152963  1.10371536882  3.23172773889  m  1  1  1  v  3.75348508157e-05  -8.31578248602e-05  4.46914083157e-06
3.33853290937  1.10394029201  7.58054057802  m  1  1  1  v  -1.86921857609e-05  8.36814898348e-05  4.83153950552e-05
3.24383756111  5.45025807114  3.23579772802  m  1  1  1  v  7.42015394497e-05  -9.69112799114e-05  5.18384426585e-05
3.28295737475  5.43678341049  7.59272178667  m  1  1  1  v  -0.000155563976141  5.98433008797e-05  2.00576862351e-05
7.63006163511  1.15062359031  3.18009584505  m  1  1  1  v  -7.53526309777e-05  -5.20788690077e-05  5.97235590223e-06
7.67723682716  1.1333576131  7.52773381752  m  1  1  1  v  6.34251601984e-05  -6.36474882475e-05  3.66043364817e-05
7.58905269137  5.4992285073  3.20483116168  m  1  1  1  v  -0.000110397314131  -7.7313993273e-05  0.000117233809453
7.65103761802  5.49463000924  7.54159564766  m  1  1  1  v  0.000200293059686  9.3792489756e-05  -0.000150565484966
3.23897921154  3.28222594434  1.06479350041  m  1  1  1  v  -0.000166768344294  -0.00017211450243  -2.32583550989e-05
3.28526835325  3.27961146895  5.40186503913  m  1  1  1  v  -6.53163431812e-06  -4.78375579963e-05  9.01783756129e-06
3.20128330446  7.63010804253  1.08122266446  m  1  1  1  v  -0.000148358738141  2.01164310134e-05  0.000164915179454
3.25300074516  7.62961530083  5.4147724431  m  1  1  1  v  8.34092864738e-05  -5.28032527021e-06  4.6856722376e-05
7.58640626939  3.31910015491  1.01973770759  m  1  1  1  v  -8.29481806641e-05  2.62514192927e-05  -5.64825054799e-05
7.64058765552  3.31265761666  5.35972603209  m  1  1  1  v  -4.175849325e-05  7.96663964019e-05  2.66643879933e-05
7.56072545619  7.67388614564  1.02349668332  m  1  1  1  v  -3.30277633318e-06  4.53700704501e-05  2.19653156448e-06
7.59816762976  7.65996830497  5.37835782199  m  1  1  1  v  -4.77382175217e-06  0.000115773387083  -5.23871260204e-05
1.08927171114  1.10488580956  1.07655344616  m  1  1  1  v  0.000119180213366  0.000200492442229  0.000102244596357
1.13702878558  1.08878523639  5.43703090147  m  1  1  1  v  1.15960499276e-05  0.000172866952129  -2.45609041223e-05
1.0517902794  5.44314300802  1.09936223828  m  1  1  1  v  -0.000140443698825  4.83674877172e-06  3.94953328882e-05
1.09763851983  5.43809204225  5.44392324165  m  1  1  1  v  -0.000149669143329  7.78226618875e-06  -2.32281241744e-05
5.43753545054  1.13229975965  1.03025110734  m  1  1  1  v  3.26464651778e-05  -0.000122247298713  -1.19034628133e-05
5.48288625986  1.13029678318  5.38117404566  m  1  1  1  v  -2.49569946637e-05  -4.32710150163e-05  -6.55485725425e-05
5.39802657587  5.46534851682  1.04991173515  m  1  1  1  v  5.72238112813e-06  -8.39248405235e-05  -5.21429099315e-05
5.43234359692  5.47198790131  5.39264176498  m  1  1  1  v  -3.96496859253e-05  0.000117562975294  3.8680437171e-05
1.09264504833  3.26360409446  3.26641906055  m  1  1  1  v  1.91289337478e-05  0.000156399454468  2.99156016274e-05
1.13996001344  3.25074040989  7.61720505777  m  1  1  1  v  2.94969377916e-05  -8.34783216462e-05  -0.000147607996557
1.05771936995  7.61940376201  3.26922124685  m  1  1  1  v  -5.40115537244e-05  4.6935368425e-05  -0.000132355051942
1.10783512778  7.58270286926  7.61932597854  m  1  1  1  v  5.52044443212e-05  1.75263621645e-05  5.44990932581e-05
5.44844004771  3.29115915804  3.21160472443  m  1  1  1  v  2.64332779002e-06  2.1560318975e-05  -0.000151918608183
5.49200077693  3.29630303518  7.55458434497  m  1  1  1  v  7.70291782753e-05  3.0387466746e-05  -0.000141410421855
5.40558731141  7.65695827023  3.21171116277  m  1  1  1  v  5.66353708768e-05  0.000102339683115  -8.84584478863e-06
5.43924552175  7.64107769343  7.57877087513  m  1  1  1  v  4.33181838782e-05  -0.000156566431458  -6.26745089412e-05

C #label
0 #magnetism
32 #number of atoms
0.362411080087  0.0296136406898  8.57338638668  m  1  1  1  v  -0.000124448473963  2.08901453755e-05  0.00016049818932
0.229970237177  0.0635076790276  4.25133303582  m  1  1  1  v  0.000191297388102  -4.62783238531e-05  -9.59881045578e-06
0.315046557978  4.37193862647  8.57591701993  m  1  1  1  v  -0.000191403729675  5.06776473255e-05  -6.01285867948e-05
0.181684059595  4.418933487  4.27650102551  m  1  1  1  v  -5.2278679264e-05  -7.792585883e-05  0.000140794845037
4.53019035239  -0.00906153610244  8.60621996088  m  1  1  1  v  -0.000162689334505  9.80853261294e-05  0.000162893254362
4.40804206627  0.0188224177722  4.31505381503  m  1  1  1  v  1.5926637752e-05  -0.000255855201598  8.35971741191e-05
4.47348883766  4.33509066613  8.61427713635  m  1  1  1  v  -0.000278988095975  -0.000131397119044  -0.000196744229846
4.35134296325  4.3775672256  4.30599920125  m  1  1  1  v  -0.000123958652111  0.000287655759423  0.000192606792962
0.174110355327  2.25870617206  2.0965354384  m  1  1  1  v  -6.37093310702e-05  1.81178455216e-05  -3.43113576925e-05
0.235112758108  2.23012607281  6.45146047137  m  1  1  1  v  -0.000110142842589  0.000115183386283  3.71432727462e-05
0.143915303916  6.59649136042  2.0972996087  m  1  1  1  v  -0.000172173347231  6.728735942e-05  0.000157205921955
0.203373134718  6.57707827857  6.44364969318  m  1  1  1  v  -5.12342524946e-05  -2.97270584452e-05  0.000183276724301
4.35430037495  2.21248328489  2.14953293871  m  1  1  1  v  4.47009858535e-05  -0.000101858927359  0.000135620537492
4.40244464013  2.20960758859  6.47274671181  m  1  1  1  v  -0.000105401693313  -8.86461313771e-05  -0.000271761218447
4.31401951869  6.5386547428  2.13435222766  m  1  1  1  v  2.94679000063e-05  -0.00020339013617  0.00022788641535
4.3566836046  6.54353388708  6.48491072593  m  1  1  1  v  -0.000177250392834  -0.000200676855158  -0.000322007090642
2.19447428105  0.0114272399899  2.14189003239  m  1  1  1  v  -3.75063461783e-05  -0.000168821407432  -0.000142996896212
2.22978099464  0.00131682290751  6.50673283481  m  1  1  1  v  9.77684240338e-05  4.07777950964e-05  -0.000223978850774
2.15874690367  4.34723455372  2.16378078524  m  1  1  1  v  -0.000101794787961  -0.000209335870561  0.000164393663766
2.21347558847  4.34783261608  6.49722283808  m  1  1  1  v  -0.000167558580056  0.000112161494425  -6.71273306123e-05
6.53755700394  0.0531662460561  2.11923062753  m  1  1  1  v  -0.000104262205106  -6.00911222593e-05  -2.69960439968e-05
6.60787975909  0.0106427089103  6.45130823014  m  1  1  1  v  -2.8315489866e-06  1.85930233558e-05  -3.88252351572e-05
6.51728118252  4.39749517208  2.11785972654  m  1  1  1  v  0.000146743815928  9.31472276095e-05  -0.000124431658415
6.54368760909  4.3925946679  6.4686580194  m  1  1  1  v  -3.04255434364e-05  0.000331720263656  0.000136075058991
2.33309092347  2.14438644116  8.63379721772  m  1  1  1  v  -3.75237263691e-06  4.59249351644e-05  -3.6060157556e-05
2.20214928952  2.18230451753  4.32231772664  m  1  1  1  v  -9.75593626326e-05  -0.000189890616436  8.25291454476e-05
2.11077252082  6.54264457627  0.0107494568518  m  1  1  1  v  -0.000114298688697  0.000119672916301  -3.23504871172e-05
2.15682727966  6.53157162664  4.33858069382  m  1  1  1  v  0.000134687181745  0.000130340405112  7.11124311629e-05
6.67603232631  2.19263428029  8.59030275049  m  1  1  1  v  -0.000150330142392  2.12157211533e-05  0.000231440213329
6.54760807408  2.21720754827  4.28154501913  m  1  1  1  v  8.17605725018e-05  -0.000159528379431  -3.73239453516e-05
6.63102917399  6.53880847534  8.61832500667  m  1  1  1  v  -4.74831835152e-05  8.4290632795e-05  -3.63633044313e-05
6.52645151561  6.56647454816  4.29528478166  m  1  1  1  v  -3.61873245883e-05  5.97629472913e-05  3.24487310207e-05
