ATOMIC_SPECIES
Li 6.941 ./Li.upf
Ni 58.693 ./Ni.upf
O 15.999 ./O.upf
Mn 54.938 ./Mn.upf
Co 58.933 ./Co.upf

NUMERICAL_ORBITAL
./Li_gga_9au_100Ry_4s1p.orb
./Ni_gga_9au_100Ry_4s2p2d1f.orb
./O_gga_7au_100Ry_2s2p1d.orb
./Mn_gga_9au_100Ry_4s2p2d1f.orb
./Co_gga_9au_100Ry_4s2p2d1f.orb

LATTICE_CONSTANT
1.889716

LATTICE_VECTORS
    8.52869     0.00000     0.00000
   -4.26435     7.38607     0.00000
    0.00000     0.00000    14.14561

ATOMIC_POSITIONS
Direct

Li
0.0
27
  0.0000000   0.0000000   0.0000000 1 1 1
  0.0000000   0.3333333   0.0000000 1 1 1
  0.0000000   0.6666667   0.0000000 1 1 1
  0.3333333   0.0000000   0.0000000 1 1 1
  0.3333333   0.3333333   0.0000000 1 1 1
  0.3333333   0.6666667   0.0000000 1 1 1
  0.6666667   0.0000000   0.0000000 1 1 1
  0.6666667   0.3333333   0.0000000 1 1 1
  0.6666667   0.6666667   0.0000000 1 1 1
  0.2222223   0.1111110   0.3333330 1 1 1
  0.2222223   0.4444443   0.3333330 1 1 1
  0.2222223   0.7777777   0.3333330 1 1 1
  0.5555556   0.1111110   0.3333330 1 1 1
  0.5555556   0.4444443   0.3333330 1 1 1
  0.5555556   0.7777777   0.3333330 1 1 1
  0.8888890   0.1111110   0.3333330 1 1 1
  0.8888890   0.4444443   0.3333330 1 1 1
  0.8888890   0.7777777   0.3333330 1 1 1
  0.1111110   0.2222223   0.6666670 1 1 1
  0.1111110   0.5555556   0.6666670 1 1 1
  0.1111110   0.8888890   0.6666670 1 1 1
  0.4444443   0.2222223   0.6666670 1 1 1
  0.4444443   0.5555556   0.6666670 1 1 1
  0.4444443   0.8888890   0.6666670 1 1 1
  0.7777777   0.2222223   0.6666670 1 1 1
  0.7777777   0.5555556   0.6666670 1 1 1
  0.7777777   0.8888890   0.6666670 1 1 1

Ni
2.0
9
  0.1111110   0.8888890   0.1666670 1 1 1
  0.4444443   0.5555556   0.1666670 1 1 1
  0.7777777   0.2222223   0.1666670 1 1 1
  0.3333333   0.0000000   0.5000000 1 1 1
  0.6666667   0.6666667   0.5000000 1 1 1
  0.0000000   0.3333333   0.5000000 1 1 1
  0.2222223   0.7777777   0.8333330 1 1 1
  0.5555556   0.4444443   0.8333330 1 1 1
  0.8888890   0.1111110   0.8333330 1 1 1

O
0.0
54
  0.0000000   0.0000000   0.2395870 1 1 1
  0.0000000   0.3333333   0.2395870 1 1 1
  0.0000000   0.6666667   0.2395870 1 1 1
  0.3333333   0.0000000   0.2395870 1 1 1
  0.3333333   0.3333333   0.2395870 1 1 1
  0.3333333   0.6666667   0.2395870 1 1 1
  0.6666667   0.0000000   0.2395870 1 1 1
  0.6666667   0.3333333   0.2395870 1 1 1
  0.6666667   0.6666667   0.2395870 1 1 1
  0.2222223   0.1111110   0.0937460 1 1 1
  0.2222223   0.4444443   0.0937460 1 1 1
  0.2222223   0.7777777   0.0937460 1 1 1
  0.5555556   0.1111110   0.0937460 1 1 1
  0.5555556   0.4444443   0.0937460 1 1 1
  0.5555556   0.7777777   0.0937460 1 1 1
  0.8888890   0.1111110   0.0937460 1 1 1
  0.8888890   0.4444443   0.0937460 1 1 1
  0.8888890   0.7777777   0.0937460 1 1 1
  0.2222223   0.1111110   0.5729200 1 1 1
  0.2222223   0.4444443   0.5729200 1 1 1
  0.2222223   0.7777777   0.5729200 1 1 1
  0.5555556   0.1111110   0.5729200 1 1 1
  0.5555556   0.4444443   0.5729200 1 1 1
  0.5555556   0.7777777   0.5729200 1 1 1
  0.8888890   0.1111110   0.5729200 1 1 1
  0.8888890   0.4444443   0.5729200 1 1 1
  0.8888890   0.7777777   0.5729200 1 1 1
  0.1111110   0.2222223   0.4270800 1 1 1
  0.1111110   0.5555556   0.4270800 1 1 1
  0.1111110   0.8888890   0.4270800 1 1 1
  0.4444443   0.2222223   0.4270800 1 1 1
  0.4444443   0.5555556   0.4270800 1 1 1
  0.4444443   0.8888890   0.4270800 1 1 1
  0.7777777   0.2222223   0.4270800 1 1 1
  0.7777777   0.5555556   0.4270800 1 1 1
  0.7777777   0.8888890   0.4270800 1 1 1
  0.1111110   0.2222223   0.9062540 1 1 1
  0.1111110   0.5555556   0.9062540 1 1 1
  0.1111110   0.8888890   0.9062540 1 1 1
  0.4444443   0.2222223   0.9062540 1 1 1
  0.4444443   0.5555556   0.9062540 1 1 1
  0.4444443   0.8888890   0.9062540 1 1 1
  0.7777777   0.2222223   0.9062540 1 1 1
  0.7777777   0.5555556   0.9062540 1 1 1
  0.7777777   0.8888890   0.9062540 1 1 1
  0.0000000   0.0000000   0.7604130 1 1 1
  0.0000000   0.3333333   0.7604130 1 1 1
  0.0000000   0.6666667   0.7604130 1 1 1
  0.3333333   0.0000000   0.7604130 1 1 1
  0.3333333   0.3333333   0.7604130 1 1 1
  0.3333333   0.6666667   0.7604130 1 1 1
  0.6666667   0.0000000   0.7604130 1 1 1
  0.6666667   0.3333333   0.7604130 1 1 1
  0.6666667   0.6666667   0.7604130 1 1 1

Mn
3.0
9
  0.1111110   0.2222223   0.1666670 1 1 1
  0.4444443   0.8888890   0.1666670 1 1 1
  0.7777777   0.5555556   0.1666670 1 1 1
  0.3333333   0.3333333   0.5000000 1 1 1
  0.6666667   0.0000000   0.5000000 1 1 1
  0.0000000   0.6666667   0.5000000 1 1 1
  0.2222223   0.1111110   0.8333330 1 1 1
  0.5555556   0.7777777   0.8333330 1 1 1
  0.8888890   0.4444443   0.8333330 1 1 1

Co
0.0
9
  0.1111110   0.5555556   0.1666670 1 1 1
  0.4444443   0.2222223   0.1666670 1 1 1
  0.7777777   0.8888890   0.1666670 1 1 1
  0.3333333   0.6666667   0.5000000 1 1 1
  0.6666667   0.3333333   0.5000000 1 1 1
  0.0000000   0.0000000   0.5000000 1 1 1
  0.2222223   0.4444443   0.8333330 1 1 1
  0.5555556   0.1111110   0.8333330 1 1 1
  0.8888890   0.7777777   0.8333330 1 1 1

