ATOMIC_SPECIES
Si 28.085 Si_ONCV_PBE-1.0.upf
C 12.011 C_ONCV_PBE-1.0.upf

LATTICE_CONSTANT
1.8897261254578281

LATTICE_VECTORS
9.407670045497548 0.0 0.0 
-4.556429028372927 8.07118374241909 0.0 
0.11223387037298801 0.2037978910620168 10.345399614941806 

ATOMIC_POSITIONS
Cartesian    # Cartesian(Unit is LATTICE_CONSTANT)
Si
0.0
36
0.028489006992 1.819127958552 2.523747035970 1 1 1
3.187655703733 7.149315770446 2.438729205026 1 1 1
-3.016052809590 7.219673220495 2.473349592293 1 1 1
4.741778847598 6.274656936079 5.002541924386 1 1 1
1.580069524461 0.925954044357 5.063059089799 1 1 1
7.795609231581 0.885975732138 5.018863007191 1 1 1
0.054773641201 1.864907344476 7.608476574183 1 1 1
3.213006020165 7.214051190325 7.538539809286 1 1 1
-2.978276063614 7.245596382284 7.570309263555 1 1 1
4.770152396880 6.300815823010 10.068801348143 1 1 1
1.621554981264 0.969458618942 10.144089814561 1 1 1
7.812015372923 0.923344895271 10.124661713657 1 1 1
-1.511452537720 4.512696271614 2.499146484370 1 1 1
1.596265361568 4.481493723024 2.488378533324 1 1 1
0.084116278381 7.184881974987 2.477513377712 1 1 1
6.255767844073 3.564102625943 5.024711342541 1 1 1
3.149342933499 3.595509726621 5.019492203051 1 1 1
4.686589022241 0.897581028597 5.075144310968 1 1 1
-1.461349562082 4.567871809345 7.570765472373 1 1 1
1.616434980442 4.516775334531 7.594739596885 1 1 1
0.103408368340 7.236495467121 7.554814776443 1 1 1
6.288278024783 3.632857392412 10.091708469095 1 1 1
3.189086793937 3.643971444155 10.107906974291 1 1 1
4.700008433771 0.933911979224 10.137797036962 1 1 1
3.121731046379 1.781153062103 2.493201570903 1 1 1
6.226996781103 1.758796536412 2.487451480564 1 1 1
4.691947842535 4.447569869695 2.480026775517 1 1 1
1.630272864819 6.285142746137 5.022467587306 1 1 1
-1.476082247605 6.320921521652 5.021073117959 1 1 1
0.069095760494 3.621729552250 5.062932068207 1 1 1
3.158203168819 1.835283444106 7.599440150758 1 1 1
6.258029182864 1.813947959570 7.558146646033 1 1 1
4.737032319953 4.513852522157 7.548120910291 1 1 1
1.655624160679 6.335804301094 10.106697186067 1 1 1
-1.439180211619 6.372325876321 10.095813682973 1 1 1
0.096581130472 3.677934344035 10.134175934647 1 1 1
C
0.0
36
0.030483402715 1.816146668179 4.425854879448 1 1 1
3.194509506865 7.174215134238 4.373969814677 1 1 1
-3.020454700375 7.221385721182 4.392283853666 1 1 1
4.747309372677 6.296862467492 6.901356449972 1 1 1
1.586252684445 0.965386320280 6.975611482283 1 1 1
7.802683621722 0.895619005174 6.937018476391 1 1 1
0.075524155032 1.889786906181 9.534256094518 1 1 1
3.207604917390 7.219739901834 9.452837656995 1 1 1
-2.976965819863 7.277434878616 9.460715313871 1 1 1
4.730614165996 6.237337137709 1.832451173722 1 1 1
1.566559319224 0.882340747055 1.893102781510 1 1 1
7.771660067170 0.836658052107 1.855552985338 1 1 1
-1.491170651854 4.542577708869 4.420280028195 1 1 1
1.621911152806 4.523324040708 4.414856802481 1 1 1
0.091642283567 7.207058225143 4.377506155288 1 1 1
6.268388113970 3.582673863861 6.928444731210 1 1 1
3.171254425985 3.623843191228 6.937866727907 1 1 1
4.710318137668 0.926349457873 6.959319607806 1 1 1
-1.466614728079 4.581986339216 9.498463685150 1 1 1
1.658889492383 4.559696802669 9.496539564913 1 1 1
0.109138769952 7.263124616474 9.466444920445 1 1 1
6.246873157551 3.536637929812 1.850284866219 1 1 1
3.140849802831 3.558739791124 1.862982068699 1 1 1
4.662102274828 0.873866069379 1.876073737164 1 1 1
3.127238263638 1.810483267983 4.423359711967 1 1 1
6.252308300516 1.787334856879 4.408310832104 1 1 1
4.714857870208 4.477930928585 4.397783447867 1 1 1
1.633518846568 6.318330131094 6.913409461488 1 1 1
-1.459782765487 6.338709859108 6.952140467038 1 1 1
0.064481600245 3.643032997182 6.955113095950 1 1 1
3.182954530348 1.864980671508 9.491647470361 1 1 1
6.273022986929 1.840446989533 9.490641609549 1 1 1
4.734009814936 4.519671758002 9.468880993151 1 1 1
1.622089119151 6.274420394881 1.834861553979 1 1 1
-1.492587655768 6.292012996808 1.862627173296 1 1 1
0.036627311938 3.593285779631 1.880002978302 1 1 1

NUMERICAL_ORBITAL
Si_gga_9au_100Ry_3s3p2d.orb
C_gga_9au_100Ry_3s3p2d.orb
