ATOMIC_SPECIES
Si 28.085 Si_ONCV_PBE-1.0.upf upf201
C 12.011 C_ONCV_PBE-1.0.upf upf201

NUMERICAL_ORBITAL
Si_gga_9au_100Ry_3s3p2d.orb
C_gga_9au_100Ry_3s3p2d.orb

LATTICE_CONSTANT
1.88972612546

LATTICE_VECTORS
9.3001645715 1.87616445452e-10 5.00762206295e-15 #latvec1
-4.65008228558 8.054178804 1.48735417311e-12 #latvec2
5.48374466824e-15 1.88607120287e-12 10.174189224 #latvec3

ATOMIC_POSITIONS
Cartesian

Si #label
0 #magnetism
36 #number of atoms
5.87628300723e-07  1.78981332943  2.54115513327  m  1  1  1  v  2.08222112447e-05  -5.34848695057e-06  1.34555746122e-05
3.10005818612  7.15927264898  2.54115513327  m  1  1  1  v  8.80550339023e-06  -1.47003972316e-05  2.75078094137e-05
-3.10005877333  7.15927163117  2.54115513327  m  1  1  1  v  -5.13704579227e-05  1.41017324051e-05  -1.22500325592e-05
4.65008169835  6.2643656062  5.08468289394  m  1  1  1  v  5.06210832341e-05  -5.44693153308e-05  3.69179263889e-06
1.5500239859  0.894906089527  5.08468289396  m  1  1  1  v  1.45510166814e-05  3.88272604189e-05  -2.83786180457e-05
7.75014117307  0.894907107215  5.08468289396  m  1  1  1  v  3.19016495298e-07  -5.67690194237e-06  5.60940028368e-06
5.87315340698e-07  1.78981332942  7.62825789972  m  1  1  1  v  -3.59402677604e-05  -4.7374172969e-06  -8.39284815119e-07
3.1000581863  7.15927264875  7.62825789972  m  1  1  1  v  2.41853717426e-05  2.49994627707e-05  -4.10585253683e-05
-3.1000587732  7.15927163145  7.62825789972  m  1  1  1  v  4.91735204922e-05  1.34704857126e-05  -2.21277793633e-06
4.65008169842  6.26436534389  10.171824818  m  1  1  1  v  4.51656259477e-06  -1.56630651859e-05  2.29569199702e-05
1.55002421303  0.894906220738  10.1718248181  m  1  1  1  v  -3.60673516164e-06  4.31457733531e-05  -7.86229155721e-06
7.75014094585  0.894907238323  10.1718248181  m  1  1  1  v  1.52729539727e-05  -3.04159189209e-05  -2.5113218204e-05
-1.55002756409  4.47454278489  2.54115433774  m  1  1  1  v  -6.1575338024e-06  -1.85475888336e-05  -2.91298305641e-05
1.55002835875  4.47454416091  2.54115433774  m  1  1  1  v  6.82219232602e-06  2.35216016119e-05  -9.81867343464e-06
-7.9422870188e-07  7.15927066387  2.54115433774  m  1  1  1  v  -9.31283028812e-06  -1.4861185074e-05  -4.55236308994e-05
6.20010989542  3.57963604553  5.08468234248  m  1  1  1  v  -1.31307426207e-07  -1.28883568417e-05  3.20378699329e-05
3.10005388173  3.57963466945  5.08468234248  m  1  1  1  v  -3.57207413218e-06  5.65397935133e-05  -1.06519198904e-06
4.65008308018  0.894908087855  5.08468234248  m  1  1  1  v  -2.18821980159e-05  7.66364199516e-07  1.65814596405e-05
-1.55002764046  4.47454274055  7.62825748391  m  1  1  1  v  6.00738108406e-07  7.63174208248e-06  -2.47717324543e-05
1.55002843534  4.47454411698  7.62825748391  m  1  1  1  v  1.7587874155e-05  3.70421200359e-05  -3.70673936403e-05
-7.94465535466e-07  7.15927075218  7.62825748391  m  1  1  1  v  5.3533948387e-06  -1.94670914353e-05  -6.11241697166e-06
6.20010988166  3.579636038  10.171824158  m  1  1  1  v  1.8244697657e-05  2.82925424105e-05  -1.48488975351e-05
3.10005389514  3.57963466132  10.171824158  m  1  1  1  v  -1.37193485462e-05  1.24263692237e-05  -2.94349873755e-05
4.65008308051  0.894908103546  10.171824158  m  1  1  1  v  2.66233922009e-05  1.69441610939e-05  5.69915681345e-07
3.1000524266  1.78981481116  2.54115418659  m  1  1  1  v  2.58302585565e-06  2.65374634387e-05  -4.88169442525e-06
6.20011326912  1.78981675822  2.54115418659  m  1  1  1  v  1.23301498859e-05  -6.6101623716e-06  2.91507443929e-05
4.65008116178  4.47454723627  2.54115418659  m  1  1  1  v  -7.94985273518e-07  1.85029206306e-05  -4.40263366491e-06
1.55002992814  6.26436403206  5.08468207354  m  1  1  1  v  -4.57363578911e-05  5.29439844793e-05  -2.59179792814e-05
-1.55003105145  6.26436208608  5.08468207354  m  1  1  1  v  1.28455016267e-05  -3.38609726261e-05  2.37431330036e-05
1.12351626055e-06  3.57963148876  5.08468207354  m  1  1  1  v  -2.49032512124e-05  -3.9395597677e-06  -4.0296572377e-05
3.10005250133  1.78981485687  7.62825723013  m  1  1  1  v  -2.88074898566e-05  -1.177375606e-05  3.40952242417e-05
6.20011319218  1.78981680009  7.62825723013  m  1  1  1  v  -6.10086977136e-05  2.73674370865e-06  3.91217072301e-05
4.65008116397  4.47454714873  7.62825723013  m  1  1  1  v  3.16797747136e-05  -2.13812044224e-05  3.20890412082e-05
1.55002971523  6.26436390841  10.1718240222  m  1  1  1  v  -2.54901981885e-05  -1.6014034434e-05  -2.73751988562e-05
-1.55003083789  6.26436196351  10.1718240222  m  1  1  1  v  5.05569824879e-06  -3.46447231809e-05  -1.99980436516e-05
1.12289879632e-06  3.57963173499  10.1718240222  m  1  1  1  v  4.44762661357e-06  -5.48247991553e-06  4.95554440045e-06

C #label
0 #magnetism
36 #number of atoms
6.05704010239e-07  1.78981246267  4.45357138417  m  1  1  1  v  -3.45923957259e-05  2.31947392564e-05  -2.78639326482e-05
3.10005893017  7.15927310232  4.45357138417  m  1  1  1  v  -6.29539355816e-06  -2.27555423688e-05  -2.3092418558e-05
-3.10005953548  7.15927205318  4.45357138417  m  1  1  1  v  2.49761263203e-05  2.88595732134e-05  9.06693765834e-07
4.65008168118  6.26436620704  6.9971377148  m  1  1  1  v  1.28495588891e-06  3.02695879223e-05  4.78883536891e-05
1.55002347171  0.894905769986  6.9971377148  m  1  1  1  v  -6.00497084141e-06  -2.85653333107e-05  -8.24729123228e-06
7.75014170442  0.894906817414  6.9971377148  m  1  1  1  v  4.3819650622e-05  2.05454783474e-05  5.7519950912e-05
6.05424884261e-07  1.7898127799  9.54071523833  m  1  1  1  v  6.4663973941e-06  -4.42216575238e-05  -4.57011079404e-05
3.10005865559  7.15927294346  9.54071523833  m  1  1  1  v  -2.15743502958e-05  -7.66476759401e-05  2.7788686913e-05
-3.10005926059  7.15927189481  9.54071523833  m  1  1  1  v  7.94339240274e-05  -4.84710844697e-05  9.5541151639e-06
4.65008167978  6.2643661584  1.91005410834  m  1  1  1  v  -3.2330166362e-05  1.09733071286e-05  6.07247172409e-05
1.55002351452  0.89490579306  1.91005410834  m  1  1  1  v  4.08331703428e-07  4.2447731878e-05  5.07380830409e-05
7.75014166301  0.89490684292  1.91005410834  m  1  1  1  v  1.99204204328e-05  6.17470375692e-06  3.61194500694e-07
-1.55002755323  4.4745427708  4.45357174368  m  1  1  1  v  7.41341011426e-05  2.11513898427e-06  -1.56532505777e-05
1.550028368  4.47454418167  4.45357174368  m  1  1  1  v  5.82099065719e-06  3.25707082865e-05  -5.10475635618e-05
-8.1436827086e-07  7.15927066579  4.45357174366  m  1  1  1  v  1.64812962036e-05  -4.67928482166e-05  4.29393618875e-05
6.20010977398  3.57963599245  6.99713835873  m  1  1  1  v  -4.86064611245e-05  -2.46948308442e-05  -4.62065171308e-05
3.10005398596  3.57963458657  6.99713835873  m  1  1  1  v  -3.26664090176e-05  1.13089011225e-05  -4.85603418362e-05
4.65008309739  0.894908215314  6.99713835872  m  1  1  1  v  1.78975427945e-05  3.88426838035e-06  1.68082798518e-05
-1.55002751074  4.47454279648  9.54071576583  m  1  1  1  v  -7.5791436763e-05  1.77636280098e-05  1.11371367816e-05
1.55002832449  4.47454420563  9.54071576583  m  1  1  1  v  -3.07957605584e-05  -2.59671471023e-05  9.34355141043e-05
-8.13361712391e-07  7.15927061614  9.54071576583  m  1  1  1  v  1.84011013175e-05  5.91290742065e-07  -1.9088776954e-05
6.20010986306  3.57963604865  1.91005435148  m  1  1  1  v  2.86626021822e-05  -6.24158857762e-05  3.97885790174e-05
3.10005389274  3.57963463559  1.91005435148  m  1  1  1  v  1.67668790751e-05  -1.5952689281e-05  7.71966184706e-05
4.65008310153  0.894908110035  1.91005435148  m  1  1  1  v  -1.52391268922e-05  -3.50497059733e-06  -7.72180734408e-05
3.1000517083  1.78981443222  4.45357206585  m  1  1  1  v  1.49619373817e-05  -3.02222885472e-05  2.47818291774e-06
6.2001139589  1.78981632986  4.45357206585  m  1  1  1  v  -2.4602340928e-05  -2.54120505301e-05  6.37272349724e-05
4.65008119028  4.4745480521  4.45357206585  m  1  1  1  v  4.75924329625e-05  4.70840044982e-05  -2.23257699486e-05
1.55003052803  6.2643643417  6.99713857463  m  1  1  1  v  -4.93671056398e-05  5.65543139957e-05  5.98335135065e-05
-1.55003162196  6.26436244652  6.99713857464  m  1  1  1  v  3.89978628582e-05  -3.1159385664e-05  2.32768776533e-05
1.09419081373e-06  3.57963081019  6.99713857462  m  1  1  1  v  -3.89061135847e-05  2.41624980458e-05  7.0394117947e-06
3.10005193998  1.78981456651  9.54071593228  m  1  1  1  v  2.3461407892e-05  -4.56840597088e-05  6.14269478324e-07
6.20011372676  1.78981646338  9.54071593228  m  1  1  1  v  -4.13939429452e-05  -1.0535026747e-05  1.99978088189e-05
4.65008119074  4.47454778429  9.54071593228  m  1  1  1  v  3.34761223275e-06  -2.0306499026e-05  -3.42453865083e-05
1.55003039458  6.26436426658  1.91005462414  m  1  1  1  v  -1.90023527478e-05  6.25243107546e-05  6.97428300338e-05
-1.5500314902  6.26436236848  1.91005462414  m  1  1  1  v  3.04790471808e-05  -4.47570255169e-05  3.52521851059e-05
1.09587404276e-06  3.5796309633  1.91005462414  m  1  1  1  v  -3.61640007638e-05  -1.8604412712e-05  -4.22262413575e-05
