ATOMIC_SPECIES
Si 28.085 Si_ONCV_PBE-1.0.upf upf201
C 12.011 C_ONCV_PBE-1.0.upf upf201

NUMERICAL_ORBITAL
Si_gga_9au_100Ry_3s3p2d.orb
C_gga_9au_100Ry_3s3p2d.orb

LATTICE_CONSTANT
1.88972612546

LATTICE_VECTORS
9.3001645715 1.87616445452e-10 5.00762206295e-15 #latvec1
-4.65008228558 8.054178804 1.48735417311e-12 #latvec2
5.48374466824e-15 1.88607120287e-12 10.174189224 #latvec3

ATOMIC_POSITIONS
Cartesian

Si #label
0 #magnetism
36 #number of atoms
0.00209456346411  1.80383743342  2.54112939018  m  1  1  1  v  9.25556958607e-05  0.000267669285068  -0.000168483017597
3.1109263811  7.15539526753  2.53908778707  m  1  1  1  v  0.00026148047787  0.000131796838807  -0.000254155982599
-3.10793929517  7.15137446636  2.53637229297  m  1  1  1  v  0.000157660901569  -3.26757399853e-06  0.000131025465157
4.63684203749  6.2578873125  5.08473721355  m  1  1  1  v  -7.86684169766e-05  7.46879773029e-06  -1.93120716814e-05
1.53843344467  0.902222184035  5.0858561706  m  1  1  1  v  -5.75947212701e-05  -1.75146455242e-05  0.00010177372421
7.74020120388  0.913597807582  5.09266831376  m  1  1  1  v  -0.000103460103775  2.9123248266e-05  2.76487526031e-05
-0.00669070848728  1.78601082917  7.63250272159  m  1  1  1  v  0.000264694303703  -2.82770665142e-05  7.98434121921e-05
3.08936007334  7.16717497809  7.62220210609  m  1  1  1  v  -5.77655864284e-05  -0.000290315159915  -3.83215305161e-05
-3.10085635249  7.16904633484  7.63985885731  m  1  1  1  v  -0.000107082663813  0.000143166478338  0.000239329120416
4.63189442201  6.26900690311  0.00681722955103  m  1  1  1  v  -0.000199727444739  -0.000156648940898  0.000103779902108
1.53392755047  0.89248729116  10.1714808463  m  1  1  1  v  -6.84533891229e-05  0.000270361313684  5.41748821557e-05
7.76040357462  0.898831262667  10.1659335425  m  1  1  1  v  7.70393924203e-05  0.0002008031248  -0.000137172492513
-1.56368112587  4.47294640112  2.55222992407  m  1  1  1  v  0.000166537774087  2.65679253386e-05  0.000173231879387
1.55339464004  4.48300729328  2.54534669806  m  1  1  1  v  -3.98144293227e-05  -6.17879864095e-05  0.000163765511642
-0.00839770413144  7.15681242719  2.52047182541  m  1  1  1  v  -5.83858884337e-05  0.000206844502092  0.000169948966483
6.20296116065  3.5728607518  5.09066622509  m  1  1  1  v  4.74159863831e-05  -0.000223615095697  -0.000129464134315
3.0980366908  3.57462685098  5.07760539363  m  1  1  1  v  -0.000238388411564  5.231254315e-05  -0.000154077132702
4.6415882871  0.896441471539  5.09465395607  m  1  1  1  v  -0.000161023533496  -2.69831429605e-05  -0.000121058624256
-1.56232119663  4.48291310998  7.6389000742  m  1  1  1  v  -0.000186850971188  0.000192163522446  2.19891889924e-05
1.55903043314  4.48324632564  7.63022393597  m  1  1  1  v  5.5893823493e-05  -2.64472338137e-05  0.000194896751407
0.000781659817256  7.179507402  7.631433594  m  1  1  1  v  0.000159474233815  0.000224794496091  0.000137857090809
6.19360303657  3.57320906016  10.1688433949  m  1  1  1  v  -0.000114874290145  -1.00429021626e-05  1.88937081245e-05
3.1072151364  3.57536747214  0.00831142634747  m  1  1  1  v  6.34836157406e-05  -0.000170874702996  3.40937227074e-05
4.65975766218  0.901868795061  10.1685155321  m  1  1  1  v  -8.93749184163e-05  0.000109817652512  -6.69441544641e-06
3.099245895  1.80404184627  2.54956146202  m  1  1  1  v  9.58453888915e-05  -0.000280622305155  0.000202844101109
6.18575304533  1.79745053492  2.54822025893  m  1  1  1  v  0.000254383184625  0.000101912250002  -2.6394762276e-05
4.64124020683  4.48078866723  2.53983741715  m  1  1  1  v  0.000133819060285  0.000184666825641  2.56432759443e-05
1.56150167919  6.27019545176  5.0789509968  m  1  1  1  v  -4.1168553619e-05  3.28478921477e-05  -4.23759002546e-06
-1.54968210808  6.26252678675  5.08731454143  m  1  1  1  v  0.00017737925383  0.000166278970941  -0.000143646875306
0.00925929040554  3.58324238258  5.08137685187  m  1  1  1  v  -0.000128454006409  0.000217853507049  -0.000158059051574
3.08662518804  1.78451411233  7.63153232898  m  1  1  1  v  -0.000249284329522  5.02539377612e-05  7.75963754634e-05
6.20190388196  1.80122706078  7.62516659903  m  1  1  1  v  0.000209904231043  -6.13058662809e-05  6.13171965876e-05
4.65239252552  4.48022596468  7.62943292446  m  1  1  1  v  -0.000103018848148  -1.81569189445e-06  0.000215197097982
1.55716453452  6.25749163315  10.1680229153  m  1  1  1  v  -5.09551233533e-05  -7.56947702226e-05  4.21022248377e-06
-1.5562482123  6.26720029236  10.1670064742  m  1  1  1  v  -5.09219594352e-05  2.90536646883e-06  6.05848261332e-05
0.00841608023078  3.57978131895  10.1672009648  m  1  1  1  v  0.000142480272134  -6.91919013453e-05  -0.00017022763925

C #label
0 #magnetism
36 #number of atoms
-0.0174130738071  1.80250955757  4.46005737896  m  1  1  1  v  0.000212339952108  7.31851517824e-05  1.61678594488e-05
3.08655390316  7.13861460989  4.42534529224  m  1  1  1  v  0.000244098323533  5.77470006034e-05  -0.000408136466865
-3.10913079434  7.17631891653  4.45694189776  m  1  1  1  v  -0.000283258637301  0.000291907184775  0.000317633751667
4.67547922891  6.25485343704  6.98048882827  m  1  1  1  v  -2.61716131512e-05  -0.000375589782315  0.000166036251209
1.54915096305  0.902907042865  6.98637680243  m  1  1  1  v  -0.000243551694174  -0.000280929948906  -0.000265499780433
7.75581815041  0.893121548846  6.97212631642  m  1  1  1  v  -0.000133587162959  -0.000446445594783  0.000151193932357
-0.027430122323  1.77407652534  9.54707085534  m  1  1  1  v  8.80280473733e-06  -8.8001004596e-05  0.000132107470986
3.09834500971  7.15981531058  9.52506885006  m  1  1  1  v  -0.000181805675902  0.000328012969957  2.2881336657e-05
-3.0926886855  7.16821185541  9.54879397467  m  1  1  1  v  0.000311191897284  0.000227549779192  3.41688013707e-05
4.66283073235  6.24595792672  1.90924343471  m  1  1  1  v  -0.000109033296096  -2.59650934929e-05  0.000427632757224
1.54807079019  0.904503409246  1.91708657892  m  1  1  1  v  0.000151320351307  0.000140835650573  1.85779057062e-06
7.74369185736  0.908088959592  1.92427418672  m  1  1  1  v  0.000182378209843  -0.000134572001955  3.86631715597e-05
-1.57442812436  4.45797693841  4.44572623329  m  1  1  1  v  -0.000240133559779  -0.000388610127485  -0.000136579543943
1.53434295107  4.50497737018  4.42380781313  m  1  1  1  v  -0.000428243329949  7.69345474048e-05  -1.27721476844e-05
-0.00313821232123  7.16813797694  4.46608989131  m  1  1  1  v  0.000209902537059  -0.000136149623557  -0.000331444462031
6.2013524229  3.60703620687  7.00155549927  m  1  1  1  v  -7.77586157739e-05  0.00022874582891  -0.000275484464013
3.08846166872  3.55906878932  6.98826716767  m  1  1  1  v  7.73238725169e-05  -0.000250297388196  0.000132772219475
4.64686309662  0.89875339799  6.97409250815  m  1  1  1  v  0.000199887997696  5.73553856172e-05  -2.34101116573e-05
-1.57542951703  4.45957330348  9.54309290053  m  1  1  1  v  -0.000271526690847  -0.000117139620195  -0.000318090708997
1.5500884839  4.49106849956  9.52765097015  m  1  1  1  v  0.000252748291175  0.000262968453859  0.000152883727417
0.000984109458175  7.14512140247  9.55559897695  m  1  1  1  v  0.000176414113838  -5.63746611139e-05  0.000290540199252
6.20666232244  3.58845735062  1.90354434363  m  1  1  1  v  0.000176857363312  8.86126093148e-05  -0.000323914505282
3.11246831093  3.57452187987  1.8934183156  m  1  1  1  v  0.000224555524658  -0.000148306364287  -0.000209822228555
4.66559991504  0.890873751669  1.92245262966  m  1  1  1  v  5.67340348912e-05  -9.21451984263e-05  -0.000131221069739
3.10730212346  1.80725096421  4.45093574215  m  1  1  1  v  2.36478454243e-05  9.45656683803e-05  -0.000252005337424
6.21550075565  1.78078397645  4.44206372386  m  1  1  1  v  0.000193164073497  4.57186837453e-05  2.09616309575e-05
4.66692833998  4.49331548154  4.4379729463  m  1  1  1  v  -6.14012474506e-05  7.28878047969e-05  -0.000257882690274
1.5621694387  6.25644911202  7.02482677733  m  1  1  1  v  6.55623789436e-05  -0.000199539790853  0.000256382650836
-1.55546500921  6.27469762723  7.00791638521  m  1  1  1  v  3.9248765474e-05  -3.71379240559e-06  0.000162550105434
0.00901730160685  3.58620285096  6.99658491762  m  1  1  1  v  0.000209696643634  -0.000256103358262  -5.11069230718e-05
3.08710847628  1.80022022441  9.5352154894  m  1  1  1  v  -0.00013347839753  -9.79493822905e-05  -0.00012923489618
6.20631193167  1.76936306316  9.52888220421  m  1  1  1  v  0.000148675885683  -0.000382913683336  -2.6883157542e-05
4.65233075859  4.47324918519  9.54061857705  m  1  1  1  v  -0.000172436931177  -0.000167429429551  0.000314982971959
1.55590094672  6.25157696554  1.91075071659  m  1  1  1  v  0.000110854502691  -7.35631907794e-05  0.000202560593698
-1.54683526075  6.23487125228  1.93339996738  m  1  1  1  v  -2.31208728606e-05  -3.4814409286e-05  0.000300084318579
0.00176250031808  3.5865932212  1.89071119559  m  1  1  1  v  -0.000259564666691  0.000164433692212  -0.000126868092564
