ATOMIC_SPECIES
Si 28.085 Si_ONCV_PBE-1.0.upf upf201
C 12.011 C_ONCV_PBE-1.0.upf upf201

NUMERICAL_ORBITAL
Si_gga_9au_100Ry_3s3p2d.orb
C_gga_9au_100Ry_3s3p2d.orb

LATTICE_CONSTANT
1.88972612546

LATTICE_VECTORS
8.94087070825 0 0 #latvec1
0.0074567138335 8.92079284293 0 #latvec2
0.0376079948103 -0.053814464012 8.86617022028 #latvec3

ATOMIC_POSITIONS
Cartesian

Si #label
0 #magnetism
32 #number of atoms
3.32925793101  1.1106196125  3.33091857079  m  1  1  1  v  4.28182100929e-05  -8.23391737917e-05  1.40161974586e-06
3.33774352069  1.07938688163  7.76224005522  m  1  1  1  v  -2.31435524692e-05  0.00010272853445  6.41547957235e-05
3.33833134932  5.530939821  3.34716221665  m  1  1  1  v  7.76419822653e-05  -9.4711428094e-05  4.64886679747e-05
3.32571970372  5.53404013444  7.77441977943  m  1  1  1  v  -0.000159222256966  6.36437151013e-05  3.28384433862e-05
7.78074877943  1.11640004204  3.29572547679  m  1  1  1  v  -6.33343140181e-05  -4.50949215162e-05  1.01548215726e-05
7.80100572674  1.07274394589  7.74203861036  m  1  1  1  v  5.72548283872e-05  -4.17342642485e-05  5.08696052263e-05
7.76948775424  5.5288290798  3.32532492494  m  1  1  1  v  -9.41764228644e-05  -7.18205240027e-05  0.000119431153203
7.78173230992  5.53758823793  7.76361981748  m  1  1  1  v  0.000209180711068  0.000103898582631  -0.000141905264757
3.32688533739  3.30755155075  1.11184059973  m  1  1  1  v  -0.000165086113988  -0.000166763808131  -2.56715549586e-05
3.32107822856  3.33854812511  5.53676038115  m  1  1  1  v  3.27327666136e-06  -5.43817837584e-05  1.03091355048e-05
3.33388519085  7.76081899492  1.1295875106  m  1  1  1  v  -0.000136299956908  -8.13685743872e-06  0.000161454560513
3.3457509502  7.7267446306  5.56806735415  m  1  1  1  v  9.34021820847e-05  -1.97864958919e-05  4.00153131823e-05
7.76144684393  3.32207400928  1.11104659606  m  1  1  1  v  -6.04998768196e-05  2.51947493007e-05  -6.33699427974e-05
7.77998787133  3.29777864226  5.5436106259  m  1  1  1  v  -2.43446353625e-05  8.49954328998e-05  1.94547394714e-05
7.79889888871  7.74912328274  1.11188156233  m  1  1  1  v  1.86609562638e-05  2.35856704121e-05  -4.20886466252e-06
7.78915780046  7.74147437081  5.55474756126  m  1  1  1  v  1.59117582448e-05  9.26076645876e-05  -6.24597119761e-05
1.10533518953  1.11293823535  1.10899947185  m  1  1  1  v  5.81460645888e-05  0.000202072768051  0.000105373411771
1.10208979916  1.11472378271  5.54448852001  m  1  1  1  v  -4.53794854569e-05  0.000174797065485  -1.39238097025e-05
1.12087443465  5.52577631611  1.1265918134  m  1  1  1  v  -0.000204257791254  9.79329882555e-06  4.63031819838e-05
1.11723130961  5.52813394693  5.54588037124  m  1  1  1  v  -0.000217644689045  1.06236981422e-05  -8.92375383747e-06
5.56350459916  1.1075576931  1.10123571672  m  1  1  1  v  3.5388894194e-05  -0.000117386436877  -1.45475834732e-05
5.55542629648  1.09282869281  5.53702947677  m  1  1  1  v  -2.4802243917e-05  -3.09183177351e-05  -6.6481915245e-05
5.53910932299  5.51392823292  1.12399681972  m  1  1  1  v  1.39203056845e-05  -7.73997102655e-05  -5.4123286483e-05
5.55709689063  5.5297963182  5.5509187415  m  1  1  1  v  -3.66917714058e-05  0.000120501980935  3.66455263805e-05
1.11650809122  3.3163298933  3.3424225745  m  1  1  1  v  -4.45309608611e-05  0.000156002590112  3.37206439666e-05
1.12793150896  3.30123227122  7.78314008461  m  1  1  1  v  -5.8407799061e-05  -6.37919463687e-05  -0.000117009971156
1.10772562824  7.75985251566  3.33918075288  m  1  1  1  v  -9.54519752582e-05  1.0500570983e-05  -0.00013143863363
1.13479108107  7.73163540598  7.77184148808  m  1  1  1  v  -4.54661141355e-06  -1.62761903698e-05  6.19837875896e-05
5.53567446559  3.30528936325  3.32818390301  m  1  1  1  v  1.52792834749e-05  2.07873915999e-05  -0.000154855346068
5.56479301048  3.30806959698  7.74348195503  m  1  1  1  v  6.66103077024e-05  4.23268092386e-05  -0.000123069002064
5.54283438838  7.7617309591  3.33462210418  m  1  1  1  v  7.26097127618e-05  7.97459031695e-05  -1.53595563787e-05
5.5770927652  7.73806187281  7.78154726565  m  1  1  1  v  4.29906372579e-05  -0.000173366790681  -5.90325319631e-05

C #label
0 #magnetism
32 #number of atoms
8.92414835517  8.86171033079  8.8425448125  m  1  1  1  v  -1.32916134547e-05  7.89568631282e-05  0.000163415217291
8.88181401105  0.0021082209282  4.40804600169  m  1  1  1  v  0.000271734339028  1.63481609391e-05  -3.96037851129e-06
8.88985087491  4.38379434177  8.86277339072  m  1  1  1  v  -1.01548110212e-05  -7.36537014337e-06  -0.000131594558168
8.88060066371  4.42591623437  4.43056934218  m  1  1  1  v  6.09654984764e-05  -8.12847084123e-05  0.000132631828542
4.45307328442  8.91939194656  0.00736057365918  m  1  1  1  v  -0.000173666612997  0.000136470660082  0.000144182634282
4.4510313315  -0.0139545620722  4.43853381047  m  1  1  1  v  -2.00209533719e-05  -0.000215752037982  9.54789518308e-05
4.41578852654  4.44600246409  0.011483292541  m  1  1  1  v  -0.000254837639693  -0.000167826685234  -0.000238949273127
4.44837282023  4.43666408934  4.43305683469  m  1  1  1  v  -0.000140405025506  0.000276771739653  0.000196747952311
8.87934318548  2.22578357727  2.21951904456  m  1  1  1  v  4.93638461021e-05  3.28684608062e-05  -5.64913229013e-05
8.8769217416  2.1833994662  6.65490263622  m  1  1  1  v  2.14686961665e-05  0.000128446708507  2.2263251836e-05
8.88588305028  6.64199466608  2.22599053202  m  1  1  1  v  -5.07591323177e-05  6.7803868521e-05  0.000127615624477
8.88960230931  6.63204057199  6.64313472823  m  1  1  1  v  7.86835220861e-05  -3.85672318573e-05  0.000164902155697
4.43466857551  2.21006740331  2.20415192267  m  1  1  1  v  3.98665185494e-05  -0.000100274573214  0.000157821993918
4.44820839117  2.21750651474  6.64573918177  m  1  1  1  v  -0.000123656920092  -9.46128129216e-05  -0.000276865334845
4.43805605593  6.63572631643  2.2146750785  m  1  1  1  v  2.31521693255e-05  -0.000213553957192  0.000232200304665
4.45746816185  6.6468226854  6.64115321754  m  1  1  1  v  -0.000183058546463  -0.000217892810689  -0.000305762448726
2.21601548847  -0.00727646510763  2.21385144821  m  1  1  1  v  -7.52279242339e-05  -0.000125570118741  -0.000139547393673
2.21195426812  -0.00760578187528  6.66528698571  m  1  1  1  v  5.42964869396e-05  7.54888490455e-05  -0.000225519608591
2.22632743394  4.4211537996  2.23905237263  m  1  1  1  v  -0.000111751384245  -0.000227377437837  0.000161877401722
2.24505957617  4.42114331999  6.64561916104  m  1  1  1  v  -0.000195604186239  0.000106715496623  -5.71994350155e-05
6.65348801168  -0.00291979436512  2.23339309065  m  1  1  1  v  -0.000125389607884  -1.52983849507e-05  -3.45550845309e-05
6.6793570343  -0.0254528517503  6.62065464446  m  1  1  1  v  -2.64170344427e-05  4.89054644258e-05  -1.77007269053e-05
6.68819724593  4.41833723363  2.20860923478  m  1  1  1  v  0.0001214089156  9.39978198727e-05  -0.000115129004023
6.66329894559  4.41724157949  6.64618499683  m  1  1  1  v  -4.35459062061e-05  0.000330850263371  0.0001449247754
2.2114316898  2.19930969737  0.00316408820814  m  1  1  1  v  1.41964908473e-05  2.88229515966e-05  -6.20372497736e-05
2.23654054706  2.20765351826  4.41702556068  m  1  1  1  v  -0.00012287380791  -0.000187294121578  9.76108728192e-05
2.2144110164  6.64451647427  0.0161938900869  m  1  1  1  v  -0.000101123826699  0.000107119730346  -4.42557933067e-05
2.22868939267  6.62053801259  4.45847117692  m  1  1  1  v  0.000113838744577  0.000136682366571  6.8090041594e-05
6.65007027617  2.23289854873  0.00363356297042  m  1  1  1  v  -0.000115455207432  -8.34826209016e-06  0.000189992314582
6.66012797191  2.19543459428  4.43359783702  m  1  1  1  v  7.10167920053e-05  -0.000156535826411  -5.01192333122e-05
6.64462482402  6.66176115848  0.0184546770798  m  1  1  1  v  -1.92157711653e-05  5.86952060552e-05  -5.42820584598e-05
6.66687468462  6.63754419289  4.42180232898  m  1  1  1  v  -2.35488009381e-05  5.4366337514e-05  4.19782811544e-05
