ATOMIC_SPECIES
Si 28.085 Si_ONCV_PBE-1.0.upf upf201
C 12.011 C_ONCV_PBE-1.0.upf upf201

NUMERICAL_ORBITAL
Si_gga_9au_100Ry_3s3p2d.orb
C_gga_9au_100Ry_3s3p2d.orb

LATTICE_CONSTANT
1.88972612546

LATTICE_VECTORS
8.87121933591 -7.91478336925e-15 -1.11774121084e-15 #latvec1
-7.91478336925e-15 8.87121933591 -1.90945453661e-15 #latvec2
-1.11774121084e-15 -1.90945453661e-15 8.87121933591 #latvec3

ATOMIC_POSITIONS
Cartesian

Si #label
0 #magnetism
32 #number of atoms
3.32776354882  1.10813597069  3.33814145692  m  1  1  1  v  -0.000159711728249  -4.93592994997e-05  0.000121594319118
3.32202526205  1.12011136678  7.75989584794  m  1  1  1  v  -3.42358290016e-05  5.15408468366e-05  -0.000201590889922
3.33591196828  5.53316021176  3.32198867046  m  1  1  1  v  0.000235468354704  -2.76973271323e-05  -0.000234634420671
3.30951293112  5.54859257268  7.7600598652  m  1  1  1  v  -0.000192650292724  -6.30387563845e-05  1.29768164621e-05
7.74918876736  1.11660091724  3.31813756655  m  1  1  1  v  1.2206531329e-05  6.03797560066e-05  -5.70380702207e-05
7.75756346485  1.09915219423  7.76481851835  m  1  1  1  v  0.000157839635272  -0.000241908050922  6.11557965728e-05
7.75472009747  5.53540845495  3.32781691926  m  1  1  1  v  0.000147885777851  -0.000169082427673  -0.000175219972473
7.77080162427  5.56190536635  7.74011792784  m  1  1  1  v  0.000144581383463  0.000142507014007  -6.53780026847e-05
3.31129886789  3.32532921499  1.11875938483  m  1  1  1  v  -0.000237294290165  0.000202181595466  0.00014675950439
3.32861402728  3.32352747872  5.54941869299  m  1  1  1  v  4.74058048716e-05  -0.000152507306908  0.000166143928268
3.31056392688  7.75654713063  1.11935599471  m  1  1  1  v  0.000139371423009  1.50837540238e-05  -0.0002039953222
3.3452801565  7.76421859015  5.55260872632  m  1  1  1  v  -7.63999739593e-05  -1.10699434342e-05  0.000174153926741
7.75514215006  3.33095382969  1.09658185616  m  1  1  1  v  6.17375318631e-05  -0.00010220773189  -0.000174321036358
7.75878151729  3.32940755631  5.54618449079  m  1  1  1  v  0.000148009109108  3.24800526763e-05  8.53207525936e-05
7.74844164909  7.74525990637  1.11647624166  m  1  1  1  v  -0.000154908252053  -0.000282210406505  0.000136170702747
7.77562990163  7.76987281003  5.54965591158  m  1  1  1  v  0.000106202062443  0.000189353402726  -0.000115736646733
1.12693998043  1.12354112447  1.11170378699  m  1  1  1  v  0.000151727536439  3.43037590692e-06  4.45074454703e-05
1.0893533835  1.12535031585  5.5505980162  m  1  1  1  v  -6.2227228972e-06  0.000146241285652  -0.000141183256324
1.08331108414  5.54084971499  1.11522097718  m  1  1  1  v  -8.7621296693e-05  -8.50788411324e-05  6.79755835725e-05
1.10420981328  5.55253389809  5.54257062968  m  1  1  1  v  4.99004692524e-05  -4.66269666013e-05  -9.27278883469e-05
5.55025267516  1.10694240358  1.11125138357  m  1  1  1  v  -0.000115826124955  9.93141561776e-05  0.000251864522395
5.55610760845  1.10579846519  5.52681201201  m  1  1  1  v  1.45356945867e-05  3.82067679738e-05  -8.46760785573e-05
5.54573436917  5.54282958636  1.10171960227  m  1  1  1  v  0.000200558821795  8.960114695e-05  -0.000192144005714
5.54343241468  5.55888729525  5.54969763816  m  1  1  1  v  1.61031429483e-05  -9.0497549717e-05  0.000160277655313
1.10014112843  3.33653476324  3.32594190524  m  1  1  1  v  -0.000217672315868  7.19332441375e-05  0.000204387783546
1.10625400517  3.32339510228  7.76269147775  m  1  1  1  v  -8.87465320777e-05  -0.000140331875418  6.2413744482e-05
1.09419666021  7.77285921963  3.31459019563  m  1  1  1  v  -0.000187206959332  1.58388009163e-05  7.18271661203e-05
1.1250978869  7.76616566983  7.75532844412  m  1  1  1  v  0.000176820862482  4.60786539483e-06  -0.000112493479458
5.54980750259  3.31764991214  3.32812516329  m  1  1  1  v  4.40994556154e-05  -0.000100643232413  0.000126487231636
5.5380310343  3.32548178864  7.75028521441  m  1  1  1  v  -0.000212272243798  -5.47824183443e-05  9.20233813909e-05
5.54904674009  7.76475064373  3.32869464774  m  1  1  1  v  2.66135201022e-05  0.000162787247287  0.000180752645641
5.54424636489  7.76357502631  7.75001262562  m  1  1  1  v  -4.97887195675e-05  -0.000141345552374  -0.000102481677227

C #label
0 #magnetism
32 #number of atoms
0.0200965874684  0.0178405561895  8.86907903695  m  1  1  1  v  -0.00022833206561  6.78750347078e-05  -2.55723681744e-05
0.0205238832062  0.0116908864083  4.43389033406  m  1  1  1  v  -3.47083363516e-05  0.000119361513481  -0.000153799790159
8.85625159744  4.43577387567  0.00164201549383  m  1  1  1  v  -0.000256501204419  0.000285073087691  -2.79349055187e-05
0.0185756861153  4.41987507039  4.4431751446  m  1  1  1  v  1.70560611416e-05  0.000168972571009  0.00026041957572
4.40719515153  0.0207243940943  0.00462113259115  m  1  1  1  v  0.00016585587846  0.000344898702754  0.000278063852582
4.43846924646  0.00577913939663  4.44050247772  m  1  1  1  v  0.000247982312141  0.000124500198758  0.000260374087381
4.41190743927  4.44238023875  8.85942605401  m  1  1  1  v  8.80058609995e-05  -0.000302911779497  0.000124461804848
4.42884122261  4.42951263621  4.42386660505  m  1  1  1  v  -0.000217965787571  -0.000109530514103  3.20331505894e-05
8.85948959739  2.22611500542  2.2226412819  m  1  1  1  v  -9.42125817272e-05  -7.79676273277e-05  0.000256370505312
8.85734209694  2.21483673082  6.64598367606  m  1  1  1  v  0.000186079261011  -0.000134955589234  6.23703008246e-05
0.00918774628875  6.64755275032  2.22056018014  m  1  1  1  v  -4.57953045039e-06  0.000149615202385  -0.000365873771657
0.0265183272922  6.65866021546  6.67012070814  m  1  1  1  v  -2.46147704254e-05  -0.000367666780647  0.000240476559163
4.42120034214  2.20340623096  2.2325566897  m  1  1  1  v  -0.000137648249667  -0.000119028698874  2.46667546344e-05
4.42655898669  2.19962328863  6.61320727265  m  1  1  1  v  -0.000166545357263  -6.8744291084e-05  -0.000280840068032
4.42952499641  6.63134473688  2.21774061195  m  1  1  1  v  -0.000414192307284  7.39061812845e-05  4.12576777008e-05
4.43669011333  6.64962757666  6.64847732608  m  1  1  1  v  0.000359699568174  -0.000196468504908  0.000192354859408
2.21610228844  8.86183923736  2.23022807163  m  1  1  1  v  0.000126900978018  0.000387236267523  0.000383319532555
2.21425795824  0.0342319749434  6.63777325591  m  1  1  1  v  -0.00025718035536  0.000114785812773  -0.000213767740377
2.20381449988  4.4390966629  2.25015674082  m  1  1  1  v  -0.000243145217124  4.23052349145e-05  0.000170211945276
2.22788132403  4.4447564587  6.62743686048  m  1  1  1  v  1.42300139743e-05  0.00021515836169  -0.000424590598844
6.66488842563  0.018760373903  2.21846308341  m  1  1  1  v  6.04412050775e-05  0.000226677965261  0.000200871592687
6.67526604795  8.86440757185  6.63874765495  m  1  1  1  v  0.0001898389485  -0.000259560699802  -0.000165826984933
6.66850288846  4.43746353144  2.2268704542  m  1  1  1  v  -5.56461100967e-05  8.25231209206e-05  0.000188085255063
6.63485453541  4.4507839989  6.661777041  m  1  1  1  v  1.88309439038e-05  -0.000105653637051  0.000101082463994
2.21882052944  2.22918234164  8.85430778905  m  1  1  1  v  -0.000314098545007  -2.0503846337e-05  -0.000319986333293
2.23869392884  2.21197436747  4.43229183157  m  1  1  1  v  0.000210132748146  -0.000153653171772  -3.224476633e-05
2.2039498221  6.65600219141  8.84777650703  m  1  1  1  v  -8.17470628862e-05  -3.0016532141e-05  -0.000140581647511
2.21621898119  6.65187817917  4.42117982348  m  1  1  1  v  -0.000192109842441  0.000222056506688  -9.64907789668e-06
6.64110209555  2.2036334722  0.00598957326186  m  1  1  1  v  8.71470478732e-05  -1.09081423781e-05  8.4694411507e-06
6.64144381462  2.22228030664  4.42840558332  m  1  1  1  v  -0.000207442024825  -6.87637512167e-06  0.000251706015139
6.6298411749  6.65265960808  0.00640367840448  m  1  1  1  v  -0.000144518257897  7.66544904896e-05  -1.93429436263e-05
6.66441714004  6.6509025414  4.44355983763  m  1  1  1  v  3.0471877722e-05  0.000275157267742  -0.000286076826235
