ATOMIC_SPECIES
Si 28.085 Si_ONCV_PBE-1.0.upf
C 12.011 C_ONCV_PBE-1.0.upf

LATTICE_CONSTANT
1.8897261254578281

LATTICE_VECTORS
9.482229541554391 0.0 0.0 
-4.663678045225726 8.056848156269547 0.0 
0.2990681740000296 0.2621965895343883 10.358687274012535 

ATOMIC_POSITIONS
Cartesian    # Cartesian(Unit is LATTICE_CONSTANT)
Si
0.0
36
0.058911493087 1.841491928553 2.542082392756 1 1 1
3.200579820791 7.235013045245 2.414166026615 1 1 1
-3.057435833909 7.287976473020 2.512327891245 1 1 1
4.800692956391 6.368619948120 4.986093559916 1 1 1
1.657830669490 0.960693634001 5.097356838228 1 1 1
7.911615067178 0.936798157691 5.030264694093 1 1 1
0.114799172360 1.923614067508 7.684198678861 1 1 1
3.265680854231 7.301608267491 7.577544459827 1 1 1
-2.971513387493 7.348265245854 7.651773814120 1 1 1
4.866298718019 6.435281099254 10.131952819209 1 1 1
1.713200872204 1.017276703770 10.237022666604 1 1 1
7.981504905760 0.987075648156 10.153007391028 1 1 1
-1.503865552932 4.562642662744 2.538495003645 1 1 1
1.638931211156 4.546651567727 2.484583290336 1 1 1
0.070507819608 7.256277737727 2.471324330928 1 1 1
6.346467817466 3.653623530624 4.999054984751 1 1 1
3.201911538746 3.662552893370 5.050961719420 1 1 1
4.764489799955 0.945523267801 5.048554375104 1 1 1
-1.429045800930 4.613360256318 7.650879427776 1 1 1
1.677388383657 4.617355538963 7.613092269848 1 1 1
0.155182198229 7.334707434400 7.611528149444 1 1 1
6.431498186592 3.732720984323 10.126421858198 1 1 1
3.288658208942 3.722505802957 10.181126475132 1 1 1
4.848616273036 1.024100780922 10.195685278169 1 1 1
3.170347880028 1.823336908003 2.508095222535 1 1 1
6.306678003256 1.813812317931 2.454796065588 1 1 1
4.764614232115 4.541336134095 2.438800928103 1 1 1
1.658360506385 6.372744543042 5.030280733688 1 1 1
-1.455555116507 6.392187398411 5.088101864863 1 1 1
0.096183851422 3.678495259511 5.076805539797 1 1 1
3.248116559238 1.899218751348 7.635639700312 1 1 1
6.396554157896 1.884494853250 7.596348247008 1 1 1
4.829808571685 4.607065787047 7.584664192859 1 1 1
1.736564283104 6.423610968709 10.190011073348 1 1 1
-1.394557675161 6.462572596732 10.197668827308 1 1 1
0.144506586355 3.730251055491 10.229060958146 1 1 1
C
0.0
36
0.066251859398 1.869352878217 4.460782535423 1 1 1
3.226282915430 7.272424532199 4.355684878130 1 1 1
-3.033831161249 7.291557621822 4.454739534106 1 1 1
4.830814546253 6.395269989789 6.928637468412 1 1 1
1.665131228004 0.977073501964 7.033307951938 1 1 1
7.925545050067 0.951090574398 6.933569974431 1 1 1
0.124262862040 1.947860460497 9.605004849266 1 1 1
3.320523388697 7.334791736551 9.485884178361 1 1 1
-2.974459591337 7.382604920025 9.608678044560 1 1 1
4.762862924858 6.339594964890 1.770419993321 1 1 1
1.602737443334 0.924245075885 1.907996302703 1 1 1
7.866929884347 0.890820085162 1.789501800995 1 1 1
-1.478025337983 4.584251263073 4.466386008570 1 1 1
1.656867900616 4.542312006883 4.420111987583 1 1 1
0.103171878485 7.289930441390 4.410252527621 1 1 1
6.379346040538 3.680378504670 6.930586776208 1 1 1
3.247031049892 3.692545114802 6.971534076128 1 1 1
4.798981299273 0.980242139591 6.996608671926 1 1 1
-1.421931666612 4.657528988212 9.587494404548 1 1 1
1.721970977065 4.638925292192 9.546625515839 1 1 1
0.179515645689 7.334154103431 9.560498722650 1 1 1
6.314981567912 3.623529522052 1.791135689651 1 1 1
3.183678031189 3.640520907771 1.841390305404 1 1 1
4.730206921650 0.905130841883 1.866651602218 1 1 1
3.196490303424 1.846117497804 4.424228891893 1 1 1
6.319991709694 1.815542298202 4.392736358610 1 1 1
4.785925519260 4.548632083392 4.380167385115 1 1 1
1.677617529745 6.403200798814 6.939003661902 1 1 1
-1.440853597796 6.426645826633 7.009196151760 1 1 1
0.119359728718 3.696093600713 7.031660917162 1 1 1
3.270195671111 1.914292369325 9.574334318437 1 1 1
6.414373827103 1.898774277261 9.515982444935 1 1 1
4.841334515988 4.616464138717 9.512312049227 1 1 1
1.643225036257 6.345593698746 1.833147660023 1 1 1
-1.517609183989 6.355536459224 1.861464852724 1 1 1
0.051015476546 3.657463577792 1.876001944714 1 1 1

NUMERICAL_ORBITAL
Si_gga_9au_100Ry_3s3p2d.orb
C_gga_9au_100Ry_3s3p2d.orb
