INPUT_PARAMETERS
#Parameters (1.General)
suffix                  example
calculation             cell-relax
ntype                   1
nbands                  10
symmetry                1
pseudo_dir              ../../../../PP_ORB

#Parameters (2.Iteration)
ecutwfc                 20
scf_nmax                100
relax_nmax              100

#Parameters (3.Basis)
basis_type              pw

#Parameters (4.Smearing)
smearing_method         gauss
smearing_sigma          0.0074

#Parameters (5.Mixing)
mixing_type             broyden
mixing_beta             0.4