ATOMIC_SPECIES
Mo 95.94 Mo_ONCV_PBE-1.2.upf

LATTICE_CONSTANT
5.955  // add lattice constant

LATTICE_VECTORS
-0.500000000000    0.500000000000    0.500000000000    
0.500000000000    -0.500000000000    0.500000000000    
0.500000000000    0.500000000000    -0.500000000000    

ATOMIC_POSITIONS
Direct

Mo
0.0
1
    0.000000000000    0.000000000000    0.000000000000 1 1 1