ATOMIC_SPECIES
B 10.81 B-0.7.upf

LATTICE_CONSTANT
3.87877229

LATTICE_VECTORS
1.88972612463 0 0 #latvec1
0 1.88972612463 0 #latvec2
0 0 1.88972612463 #latvec3

ATOMIC_POSITIONS
Cartesian

B #label
0 #magnetism
32 #number of atoms
1.87909878083  1.84409556728  1.87660957689  m  1  1  1  v  -0.00358662393584  -0.0157433416011  -0.00435569083009
0.489253647641  0.485726728423  1.81386617336  m  1  1  1  v  0.00550760482703  0.00528155145665  -0.026749387198
0.57829945344  0.108981799276  0.493439930539  m  1  1  1  v  0.037082447128  0.038442610916  0.00782916032916
1.77847814427  0.507317415704  0.471661299452  m  1  1  1  v  -0.0388780323441  0.0124369894514  -0.000438839058442
1.8212431301  1.84734986432  0.908018656868  m  1  1  1  v  -0.023061276456  -0.0141514811054  -0.0127182809578
0.451119826569  0.575076766925  0.893899651316  m  1  1  1  v  -0.00775025731962  0.0361270323714  -0.0181235206459
0.541348270773  0.0170564504373  1.59194637522  m  1  1  1  v  0.0235645544251  0.00598372929343  0.0609134086953
0.0712378951558  0.471126690984  1.32476405684  m  1  1  1  v  0.0251055231828  -0.00049768667816  -0.0327505247462
1.88196459977  1.00907381475  0.0423243252816  m  1  1  1  v  -0.00295640407464  0.0224962175843  0.0148915613707
0.389049669404  1.48819192616  1.84153419775  m  1  1  1  v  -0.0295279367305  0.0244639745098  -0.0167001160034
0.439700398165  0.917976544013  0.378077720014  m  1  1  1  v  -0.011701650996  -0.00939455335318  -0.0334838194969
1.77283055032  1.5257996932  0.605538429725  m  1  1  1  v  -0.0405844066843  0.038028073311  0.0460933785124
0.0308693841181  1.07099475926  1.04914313122  m  1  1  1  v  0.0110500266128  0.0444628588805  0.0369530356612
0.538665433467  1.33721362443  0.898687958263  m  1  1  1  v  0.0234440707155  -0.0280146539076  -0.0165443518235
0.539813678657  1.00528391174  1.3722657397  m  1  1  1  v  0.0241117665419  0.0213918907667  -0.015698109046
1.79341129669  1.44714274167  1.49040752071  m  1  1  1  v  -0.0335562599328  0.0102439718681  0.0259572552655
0.806879540328  1.83823003623  1.8352668375  m  1  1  1  v  -0.0481940807069  -0.0185876567877  -0.0184266751889
1.42033166362  0.273555602898  1.8885708889  m  1  1  1  v  0.00116498415288  -0.070090379897  -0.000832570399761
1.34661196071  0.0150022942313  0.538459562123  m  1  1  1  v  -0.02526643569  0.00535229071422  0.0229738251112
1.00302045411  0.454784355942  0.498171329643  m  1  1  1  v  0.0202888964254  -0.00621188421774  0.00891347599855
0.999780072338  1.85048040845  0.958337946059  m  1  1  1  v  0.018779818933  -0.013880955858  0.00490706240519
1.3948284336  0.46168632367  0.918867554031  m  1  1  1  v  -0.00771635412363  -0.00350879910575  -0.00845194916244
1.44327942655  1.73824170335  1.39225763676  m  1  1  1  v  0.00934079338656  -0.0529462912372  -0.00873182207556
0.896292347945  0.373827127684  1.40523293735  m  1  1  1  v  -0.0168965914928  -0.034535669223  -0.00452715813609
0.984467313681  0.818675050089  0.0322037174223  m  1  1  1  v  0.0141807356487  -0.0445101056651  0.010985444607
1.36409711666  1.47409680685  0.0280863198161  m  1  1  1  v  -0.0191137271539  0.0198482476345  0.0103885267446
1.40826879114  0.895655526186  0.518984059831  m  1  1  1  v  -0.00275332931381  -0.0172728585094  0.0161572986799
1.03659112207  1.32232365219  0.548412857217  m  1  1  1  v  0.0320975829448  -0.0334786862233  0.026437051555
0.991392139923  0.9177699606  0.854316050311  m  1  1  1  v  0.0162395354436  -0.00987900520131  -0.0316771863847
1.51018226355  1.5186455507  0.896099454013  m  1  1  1  v  0.0323940875739  0.0353729538326  -0.0169494177108
1.37533025525  1.05166928494  1.33181865619  m  1  1  1  v  -0.0149093867683  0.0371491101418  -0.0301253139541
1.0373331824  1.46229213603  1.42807356835  m  1  1  1  v  0.032100325781  0.0156225058389  0.00388424788267

