ATOMIC_SPECIES
Si 28.085 Si_ONCV_PBE-1.0.upf
C 12.011 C_ONCV_PBE-1.0.upf

LATTICE_CONSTANT
1.8897261254578281

LATTICE_VECTORS
8.702992267645861 0.0 0.0 
-0.23492291373846796 9.066061532264053 0.0 
0.23386253924310046 0.23468712185521984 8.860838848268846 

ATOMIC_POSITIONS
Cartesian    # Cartesian(Unit is LATTICE_CONSTANT)
Si
0.0
32
3.354463049731 1.206603480169 3.275634020186 1 1 1
3.408579181557 1.250362488957 7.712070187634 1 1 1
3.298247308460 5.632755760661 3.214855716640 1 1 1
3.339364130844 5.692103288238 7.638705406222 1 1 1
7.797768927462 1.267430375737 3.201584656604 1 1 1
7.860846503847 1.311369476088 7.632303901785 1 1 1
7.730955918856 5.683658083318 3.143510767093 1 1 1
7.788811579640 5.753306113568 7.585302747517 1 1 1
3.307576525657 3.383742282716 1.015614937793 1 1 1
3.348195107904 3.471884250183 5.454724626330 1 1 1
3.237332960469 7.822232868494 0.959423010911 1 1 1
3.297041179486 7.871534707614 5.414270719589 1 1 1
7.728928805643 3.444654290939 0.957243166705 1 1 1
7.796897788488 3.494089991088 5.398394928476 1 1 1
7.692047872183 7.871930552674 0.903972749439 1 1 1
7.733813497008 7.928734746833 5.342666297610 1 1 1
1.107338683529 1.143106083528 1.080178106292 1 1 1
1.156762318362 1.214331193202 5.506466079184 1 1 1
1.057345037873 5.564654060973 1.021272677565 1 1 1
1.110519632950 5.623508458907 5.440590444364 1 1 1
5.563509633614 1.204440317204 1.021323600628 1 1 1
5.600467891494 1.251222157220 5.452429220800 1 1 1
5.478980262757 5.613769268325 0.964905906020 1 1 1
5.555001994519 5.684567852903 5.406117619385 1 1 1
1.113671961031 3.388260145882 3.270922971054 1 1 1
1.169019285920 3.434686619859 7.706823983983 1 1 1
1.051907138876 7.824465255520 3.200233112417 1 1 1
1.106563524897 7.881775639691 7.648705860719 1 1 1
5.528657836202 3.438757180891 3.204246410405 1 1 1
5.606668059010 3.497784198100 7.630976392551 1 1 1
5.467882243664 7.873981959549 3.142621882808 1 1 1
5.551782482587 7.941360680063 7.589730068513 1 1 1
C
0.0
32
8.872355062883 0.111842703528 -0.127739183426 1 1 1
8.927467049521 0.191865375440 4.314175885265 1 1 1
8.803541548069 4.562440379592 -0.168380026069 1 1 1
8.876428201025 4.619112461739 4.254495889409 1 1 1
4.447081906122 0.052076757575 -0.049240855148 1 1 1
4.495982465566 0.114402855206 4.379665192273 1 1 1
4.369989867486 4.501755257772 -0.114448497679 1 1 1
4.441824053605 4.552923455752 4.313990020710 1 1 1
8.876515904041 2.378597413214 2.070005331455 1 1 1
8.913331640318 2.415305629998 6.511764756541 1 1 1
8.822363224250 6.799028801191 2.019472056010 1 1 1
8.866754212313 6.866422932668 6.441166091219 1 1 1
4.432500426921 2.306062300435 2.109711142482 1 1 1
4.484920041173 2.367934165257 6.563492870239 1 1 1
4.381554433884 6.737923531166 2.060162108844 1 1 1
4.434734248460 6.803554945352 6.496471526718 1 1 1
2.245035460160 0.051889996608 2.195377652230 1 1 1
2.302362371737 0.133107042627 6.629194138316 1 1 1
2.196757307710 4.493521100415 2.137473511045 1 1 1
2.248518963440 4.555591487239 6.553752185055 1 1 1
6.677422249751 0.114767354493 2.136582095133 1 1 1
6.738040076082 0.185222499573 6.544929943491 1 1 1
6.644074570161 4.548750831482 2.066955064895 1 1 1
6.682739922677 4.613938784980 6.504257204146 1 1 1
2.179615880902 2.240711294447 -0.053826131354 1 1 1
2.254219590514 2.304825980354 4.366466326341 1 1 1
2.137305205523 6.676544778253 -0.127926029787 1 1 1
2.191934743874 6.728892592689 4.332941037171 1 1 1
6.622638101828 2.316632382539 -0.113613217285 1 1 1
6.680056364304 2.360147279266 4.319795299114 1 1 1
6.564962122749 6.740543607248 -0.172889308957 1 1 1
6.626130016751 6.799756979726 4.249232014893 1 1 1

NUMERICAL_ORBITAL
Si_gga_9au_100Ry_3s3p2d.orb
C_gga_9au_100Ry_3s3p2d.orb
