INPUT_PARAMETERS
#Parameters (1.General)
suffix                 Si_fire
calculation            md
nbands                 6
symmetry               0
pseudo_dir             ../../PP_ORB
orbital_dir            ../../PP_ORB

#Parameters (2.Iteration)
ecutwfc                30
scf_thr                1e-8
scf_nmax               100

#Parameters (3.Basis)
basis_type             pw

#Parameters (4.Smearing)
smearing_method        gaussian
smearing_sigma         0.001

#Parameters (5.Mixing)
mixing_type            pulay
mixing_beta            0.3
chg_extrap             second-order

#Parameters (6.MD)
md_type                fire
md_nstep               100
md_dt                  1
md_tfirst              300

force_thr_ev           0.001
