ATOMIC_SPECIES
Si  28.085  Si_ONCV_PBE-1.0.upf

LATTICE_CONSTANT
1.8897270    # 1 Angstrom = 1.8897270 bohr

LATTICE_VECTORS
2.71545      2.71545      0.00000
2.71545      0.00000      2.71545
0.00000      2.71545      2.71545

ATOMIC_POSITIONS
Direct 

Si
0.0
2
0.000	0.000	0.000	1	1	1
0.253	0.250	0.250	1	1	1
