ATOMIC_SPECIES
Si 28.085 Si_ONCV_PBE-1.0.upf
C 12.011 C_ONCV_PBE-1.0.upf

LATTICE_CONSTANT
1.8897261254578281

LATTICE_VECTORS
9.554944643478267 0.0 0.0 
-4.7182156713919925 7.9767059537945375 0.0 
0.07904632462781166 0.11400915314582993 10.23029708235428 

ATOMIC_POSITIONS
Cartesian    # Cartesian(Unit is LATTICE_CONSTANT)
Si
0.0
36
0.016429626653 1.809093323272 2.531405249609 1 1 1
3.140284587221 7.153407907280 2.485140902113 1 1 1
-3.060365790355 7.188444367137 2.507415687695 1 1 1
4.693657127248 6.281942712375 5.030153329231 1 1 1
1.566348126649 0.913215200770 5.069926356364 1 1 1
7.786022223877 0.906569578010 5.040260470418 1 1 1
0.043335237058 1.817601840575 7.614963146413 1 1 1
3.168097186443 7.196196329509 7.585901260111 1 1 1
-3.033247891324 7.197800400905 7.601030702339 1 1 1
4.708379239627 6.296870270035 10.108686429944 1 1 1
1.598812175969 0.943247801436 10.152306322891 1 1 1
7.792076198774 0.922624821098 10.139184053268 1 1 1
-1.537808810043 4.490996887867 2.528912258703 1 1 1
1.573853699665 4.476106701113 2.514456055496 1 1 1
0.046504399895 7.169046911557 2.505453380535 1 1 1
6.230582151124 3.584898975813 5.051063521901 1 1 1
3.122981280132 3.594591951036 5.049393206983 1 1 1
4.681106497251 0.909303496562 5.073625905008 1 1 1
-1.505516527081 4.518052858881 7.599241911955 1 1 1
1.582560502592 4.504194081742 7.618248130150 1 1 1
0.058022344570 7.205406461737 7.579761840769 1 1 1
6.248181356971 3.631457010968 10.113610632173 1 1 1
3.148953696474 3.618563163208 10.128793637244 1 1 1
4.686082976762 0.924173615153 10.144854499433 1 1 1
3.116725082442 1.784437684297 2.503256296234 1 1 1
6.214222995320 1.779082532973 2.508475698760 1 1 1
4.662964032617 4.465528020201 2.507695739758 1 1 1
1.594183121464 6.282240908737 5.043323415895 1 1 1
-1.515335897593 6.294417467465 5.036356793639 1 1 1
0.036478779434 3.594720661279 5.065875719319 1 1 1
3.132427300031 1.810423354347 7.606370351782 1 1 1
6.236279821404 1.811458611920 7.579699242994 1 1 1
4.698793767294 4.506806897081 7.570280067984 1 1 1
1.605412206017 6.302235786072 10.135881770734 1 1 1
-1.492362512688 6.317048869406 10.130251627965 1 1 1
0.056346675290 3.629943446900 10.140816560061 1 1 1
C
0.0
36
0.016656628517 1.810670989756 4.429512558419 1 1 1
3.141700607885 7.168678259681 4.403447999696 1 1 1
-3.063666797075 7.179735482279 4.418488491638 1 1 1
4.693915297773 6.286435582095 6.928579204784 1 1 1
1.563943176759 0.946934982319 6.983636348904 1 1 1
7.787157362527 0.910051818041 6.964884185630 1 1 1
0.045825488466 1.853041329207 9.530439163154 1 1 1
3.154122498948 7.198453526529 9.493946444728 1 1 1
-3.026404101841 7.217099167160 9.492844917088 1 1 1
4.695320122156 6.250727594189 1.855199867236 1 1 1
1.568391181609 0.889497517803 1.906902759885 1 1 1
7.772341106167 0.871906377647 1.877058608741 1 1 1
-1.525092808899 4.517755035599 4.441612997581 1 1 1
1.590013805113 4.499338028363 4.431787274723 1 1 1
0.047911548113 7.194944489105 4.415381882091 1 1 1
6.237824750609 3.591888234726 6.955556313385 1 1 1
3.129405275432 3.607431189800 6.960035123671 1 1 1
4.685490455000 0.915013120741 6.967621867499 1 1 1
-1.503198671345 4.527820982103 9.516962777732 1 1 1
1.614218347746 4.528861621167 9.512662340253 1 1 1
0.060645891792 7.217065743722 9.501397165456 1 1 1
6.225507901727 3.570728418593 1.872044679107 1 1 1
3.110341302791 3.572574262323 1.885635485509 1 1 1
4.657267094797 0.887179290660 1.886950276666 1 1 1
3.112235970805 1.805190978034 4.439609314489 1 1 1
6.228714831672 1.797386176092 4.423422325898 1 1 1
4.673687650366 4.466853764374 4.425932133229 1 1 1
1.593696315438 6.305310668914 6.944402740390 1 1 1
-1.508207084239 6.301649854898 6.977243066392 1 1 1
0.033653812278 3.609180743875 6.972822566653 1 1 1
3.153930989727 1.829544235555 9.503525816875 1 1 1
6.248191567049 1.825373324328 9.511734540740 1 1 1
4.694856937182 4.504117742341 9.493361736373 1 1 1
1.581746626489 6.275114368631 1.873182172747 1 1 1
-1.524011808165 6.268553985638 1.886965027006 1 1 1
0.012323138407 3.586914551139 1.894269644809 1 1 1

NUMERICAL_ORBITAL
Si_gga_9au_100Ry_3s3p2d.orb
C_gga_9au_100Ry_3s3p2d.orb
