ATOMIC_SPECIES
Si 28.085 Si_ONCV_PBE-1.0.upf upf201
C 12.011 C_ONCV_PBE-1.0.upf upf201

NUMERICAL_ORBITAL
Si_gga_9au_100Ry_3s3p2d.orb
C_gga_9au_100Ry_3s3p2d.orb

LATTICE_CONSTANT
1.88972612546

LATTICE_VECTORS
9.53328343723 0 0 #latvec1
-4.64821761438 8.00536760513 0 #latvec2
0.235359251437 -0.179822182102 10.2891926386 #latvec3

ATOMIC_POSITIONS
Cartesian

Si #label
0 #magnetism
36 #number of atoms
0.043438818407  1.7700611641  2.55730834578  m  1  1  1  v  2.08222112447e-05  -5.34848695057e-06  1.34555746122e-05
3.18995898336  7.10044869212  2.57004603326  m  1  1  1  v  8.80550339023e-06  -1.47003972316e-05  2.75078094137e-05
-3.016493402  7.16249947071  2.63644586726  m  1  1  1  v  -5.13704579227e-05  1.41017324051e-05  -1.22500325592e-05
4.7529425338  6.18910046379  5.08534723155  m  1  1  1  v  5.06210832341e-05  -5.44693153308e-05  3.69179263889e-06
1.60703685025  0.836037069318  5.07635354914  m  1  1  1  v  1.45510166814e-05  3.88272604189e-05  -2.83786180457e-05
7.82325885086  0.802162795453  4.98849796509  m  1  1  1  v  3.19016495298e-07  -5.67690194237e-06  5.60940028368e-06
0.107269886043  1.70924813551  7.64200302512  m  1  1  1  v  -3.59402677604e-05  -4.7374172969e-06  -8.39284815119e-07
3.24762692004  7.0766635325  7.66054450261  m  1  1  1  v  2.41853717426e-05  2.49994627707e-05  -4.10585253683e-05
-2.94710863573  7.10256376407  7.73332728452  m  1  1  1  v  4.91735204922e-05  1.34704857126e-05  -2.21277793633e-06
4.80773203957  6.13049554464  10.1648375892  m  1  1  1  v  4.51656259477e-06  -1.56630651859e-05  2.29569199702e-05
1.67847492642  0.798585605494  10.1631896463  m  1  1  1  v  -3.60673516164e-06  4.31457733531e-05  -7.86229155721e-06
7.87074495882  0.741600592289  10.0954058358  m  1  1  1  v  1.52729539727e-05  -3.04159189209e-05  -2.5113218204e-05
-1.49357266406  4.46400575215  2.6072377719  m  1  1  1  v  -6.1575338024e-06  -1.85475888336e-05  -2.91298305641e-05
1.60372112572  4.43655068333  2.56360902077  m  1  1  1  v  6.82219232602e-06  2.35216016119e-05  -9.81867343464e-06
0.0881460154741  7.13526605905  2.60301905921  m  1  1  1  v  -9.31283028812e-06  -1.4861185074e-05  -4.55236308994e-05
6.28501796822  3.4941753532  5.04654043155  m  1  1  1  v  -1.31307426207e-07  -1.28883568417e-05  3.20378699329e-05
3.17587691962  3.50018845287  5.0775265116  m  1  1  1  v  -3.57207413218e-06  5.65397935133e-05  -1.06519198904e-06
4.7209001134  0.820351919802  5.04239857632  m  1  1  1  v  -2.18821980159e-05  7.66364199516e-07  1.65814596405e-05
-1.43725530839  4.41693232659  7.67939730921  m  1  1  1  v  6.00738108406e-07  7.63174208248e-06  -2.47717324543e-05
1.66124592017  4.38956930202  7.66172580124  m  1  1  1  v  1.7587874155e-05  3.70421200359e-05  -3.70673936403e-05
0.139195017434  7.09676294401  7.68168890536  m  1  1  1  v  5.3533948387e-06  -1.94670914353e-05  -6.11241697166e-06
6.33843356094  3.45628301942  10.1256217966  m  1  1  1  v  1.8244697657e-05  2.82925424105e-05  -1.48488975351e-05
3.24608692755  3.46412393974  10.150330134  m  1  1  1  v  -1.37193485462e-05  1.24263692237e-05  -2.94349873755e-05
4.76734868813  0.759849151056  10.1221657226  m  1  1  1  v  2.66233922009e-05  1.69441610939e-05  5.69915681345e-07
3.14423496101  1.73292871002  2.50756070284  m  1  1  1  v  2.58302585565e-06  2.65374634387e-05  -4.88169442525e-06
6.23391027905  1.71703245944  2.48116031547  m  1  1  1  v  1.23301498859e-05  -6.6101623716e-06  2.91507443929e-05
4.7049985743  4.4119188279  2.53069039087  m  1  1  1  v  -7.94985273518e-07  1.85029206306e-05  -4.40263366491e-06
1.65381610316  6.20623191038  5.12162897973  m  1  1  1  v  -4.57363578911e-05  5.29439844793e-05  -2.59179792814e-05
-1.44464372097  6.23028409481  5.14646175304  m  1  1  1  v  1.28455016267e-05  -3.38609726261e-05  2.37431330036e-05
0.0785821398331  3.52180070374  5.11893646669  m  1  1  1  v  -2.49032512124e-05  -3.9395597677e-06  -4.0296572377e-05
3.19786629419  1.69762195426  7.60759737353  m  1  1  1  v  -2.88074898566e-05  -1.177375606e-05  3.40952242417e-05
6.30012218445  1.67489853318  7.56184280725  m  1  1  1  v  -6.10086977136e-05  2.73674370865e-06  3.91217072301e-05
4.77345306866  4.37828052463  7.59209499446  m  1  1  1  v  3.16797747136e-05  -2.13812044224e-05  3.20890412082e-05
1.70701815407  6.15362846597  10.2127419696  m  1  1  1  v  -2.54901981885e-05  -1.6014034434e-05  -2.73751988562e-05
-1.39490892133  6.17857363779  10.2300353773  m  1  1  1  v  5.05569824879e-06  -3.46447231809e-05  -1.99980436516e-05
0.150136229323  3.49004374754  10.1944079739  m  1  1  1  v  4.44762661357e-06  -5.48247991553e-06  4.95554440045e-06

C #label
0 #magnetism
36 #number of atoms
0.0580755964136  1.75036842413  4.46396308458  m  1  1  1  v  -3.45923957259e-05  2.31947392564e-05  -2.78639326482e-05
3.19888395124  7.09538667501  4.48300153803  m  1  1  1  v  -6.29539355816e-06  -2.27555423688e-05  -2.3092418558e-05
-3.00975445709  7.12779722459  4.55125815475  m  1  1  1  v  2.49761263203e-05  2.88595732134e-05  9.06693765834e-07
4.77459291304  6.17009507079  6.98862318068  m  1  1  1  v  1.28495588891e-06  3.02695879223e-05  4.78883536891e-05
1.61880789712  0.829678247153  6.98041853496  m  1  1  1  v  -6.00497084141e-06  -2.85653333107e-05  -8.24729123228e-06
7.84465400397  0.782876487412  6.91889176616  m  1  1  1  v  4.3819650622e-05  2.05454783474e-05  5.7519950912e-05
0.118182940856  1.70752076971  9.55448015032  m  1  1  1  v  6.4663973941e-06  -4.42216575238e-05  -4.57011079404e-05
3.25434849712  7.060788069  9.57330941078  m  1  1  1  v  -2.15743502958e-05  -7.66476759401e-05  2.7788686913e-05
-2.93129539507  7.09276658395  9.62474429389  m  1  1  1  v  7.94339240274e-05  -4.84710844697e-05  9.5541151639e-06
4.72913125768  6.20897214427  1.91320613418  m  1  1  1  v  -3.2330166362e-05  1.09733071286e-05  6.07247172409e-05
1.58362084307  0.857062031061  1.90409768515  m  1  1  1  v  4.08331703428e-07  4.2447731878e-05  5.07380830409e-05
7.79019289155  0.816438691735  1.82944946259  m  1  1  1  v  1.99204204328e-05  6.17470375692e-06  3.61194500694e-07
-1.46625652371  4.4529975418  4.52159344426  m  1  1  1  v  7.41341011426e-05  2.11513898427e-06  -1.56532505777e-05
1.63528054315  4.42046077731  4.47842576904  m  1  1  1  v  5.82099065719e-06  3.25707082865e-05  -5.10475635618e-05
0.106381485183  7.13084904173  4.52052902742  m  1  1  1  v  1.64812962036e-05  -4.67928482166e-05  4.29393618875e-05
6.30438863363  3.46602767647  6.95821996102  m  1  1  1  v  -4.86064611245e-05  -2.46948308442e-05  -4.62065171308e-05
3.20031057973  3.49102860946  6.98909497525  m  1  1  1  v  -3.26664090176e-05  1.13089011225e-05  -4.85603418362e-05
4.73995389681  0.792195646973  6.95256553574  m  1  1  1  v  1.78975427945e-05  3.88426838035e-06  1.68082798518e-05
-1.41385823736  4.39623420576  9.5930376215  m  1  1  1  v  -7.5791436763e-05  1.77636280098e-05  1.11371367816e-05
1.6952625018  4.3893245829  9.56116614319  m  1  1  1  v  -3.07957605584e-05  -2.59671471023e-05  9.34355141043e-05
0.155388684668  7.08117010068  9.59649831323  m  1  1  1  v  1.84011013175e-05  5.91290742065e-07  -1.9088776954e-05
6.25841040398  3.52551207508  1.86947123845  m  1  1  1  v  2.86626021822e-05  -6.24158857762e-05  3.97885790174e-05
3.13688763857  3.53716862377  1.90658000801  m  1  1  1  v  1.67668790751e-05  -1.5952689281e-05  7.71966184706e-05
4.66947393696  0.837603302097  1.86588212357  m  1  1  1  v  -1.52391268922e-05  -3.50497059733e-06  -7.72180734408e-05
3.15110012285  1.73130311292  4.44184367336  m  1  1  1  v  1.49619373817e-05  -3.02222885472e-05  2.47818291774e-06
6.26541758786  1.70727721704  4.39605849513  m  1  1  1  v  -2.4602340928e-05  -2.54120505301e-05  6.37272349724e-05
4.72402320289  4.39118085008  4.45101690573  m  1  1  1  v  4.75924329625e-05  4.70840044982e-05  -2.23257699486e-05
1.6691040364  6.19635946185  7.02490132343  m  1  1  1  v  -4.93671056398e-05  5.65543139957e-05  5.98335135065e-05
-1.42856258723  6.20932575048  7.07349544458  m  1  1  1  v  3.89978628582e-05  -3.1159385664e-05  2.32768776533e-05
0.103748055617  3.51300755858  7.02767669801  m  1  1  1  v  -3.89061135847e-05  2.41624980458e-05  7.0394117947e-06
3.235360625  1.68094341252  9.50744087943  m  1  1  1  v  2.3461407892e-05  -4.56840597088e-05  6.14269478324e-07
6.32049411865  1.66110036842  9.48371132215  m  1  1  1  v  -4.13939429452e-05  -1.0535026747e-05  1.99978088189e-05
4.7906520305  4.3554716461  9.52289931836  m  1  1  1  v  3.34761223275e-06  -2.0306499026e-05  -3.42453865083e-05
1.62247900959  6.24138718321  1.95292825166  m  1  1  1  v  -1.90023527478e-05  6.25243107546e-05  6.97428300338e-05
-1.48657724321  6.2477857699  1.98709272453  m  1  1  1  v  3.04790471808e-05  -4.47570255169e-05  3.52521851059e-05
0.0393754037105  3.5610561304  1.94700274925  m  1  1  1  v  -3.61640007638e-05  -1.8604412712e-05  -4.22262413575e-05
