ATOMIC_SPECIES
Si 28.085 Si_ONCV_PBE-1.0.upf upf201
C 12.011 C_ONCV_PBE-1.0.upf upf201

NUMERICAL_ORBITAL
Si_gga_9au_100Ry_3s3p2d.orb
C_gga_9au_100Ry_3s3p2d.orb

LATTICE_CONSTANT
1.88972612546

LATTICE_VECTORS
8.84153069364 0 0 #latvec1
-0.149882536391 8.62365503939 0 #latvec2
-0.0884913278155 -0.166156925993 9.05516724417 #latvec3

ATOMIC_POSITIONS
Cartesian

Si #label
0 #magnetism
32 #number of atoms
3.30278183057  1.117280883  3.36459002142  m  1  1  1  v  2.01770079589e-05  -6.57608105145e-06  1.39095932127e-05
3.26387786213  1.06429424073  7.79634591196  m  1  1  1  v  8.30615591861e-06  -1.58144801691e-05  2.77912654796e-05
3.25549265254  5.54335143393  3.39661331393  m  1  1  1  v  -5.11394045277e-05  1.26380563744e-05  -1.14840056858e-05
3.22372684109  5.49688783084  7.81980782342  m  1  1  1  v  4.96141886441e-05  -5.51006930217e-05  4.26432159899e-06
7.74317839941  1.15194020487  3.37382516634  m  1  1  1  v  1.3981931597e-05  3.70634720726e-05  -2.74168264091e-05
7.71672902691  1.09873380332  7.80355936418  m  1  1  1  v  -7.73241070022e-08  -6.90050982369e-06  6.15865379865e-06
7.6998643003  5.57552519013  3.41487531134  m  1  1  1  v  -3.58965021797e-05  -5.97242840941e-06  -2.11758762705e-07
7.67296934178  5.54189572185  7.85500020329  m  1  1  1  v  2.34993472503e-05  2.34035127965e-05  -3.99428281672e-05
3.30681103062  3.34292336118  1.15236382908  m  1  1  1  v  4.81841960591e-05  1.20144715974e-05  -1.56858076568e-06
3.25767004557  3.32710529121  5.59256587342  m  1  1  1  v  4.06927322086e-06  -1.6765463499e-05  2.32956136015e-05
3.25547102425  7.78109422699  1.1952666958  m  1  1  1  v  -3.95542596574e-06  4.13295679698e-05  -7.14952199395e-06
3.23453951666  7.73314063367  5.64713896996  m  1  1  1  v  1.46951061928e-05  -3.1339250761e-05  -2.41910611794e-05
7.72502925573  3.38880168013  1.1678618623  m  1  1  1  v  -6.47526364639e-06  -1.96149755154e-05  -2.81589208966e-05
7.71209987097  3.33271781762  5.61788088834  m  1  1  1  v  6.34691779131e-06  2.19435895493e-05  -9.08215779425e-06
7.70112583405  7.81507963296  1.22152756218  m  1  1  1  v  -9.59226192736e-06  -1.59733164086e-05  -4.43537373568e-05
7.66981023553  7.76858977324  5.66114005291  m  1  1  1  v  -5.22182108639e-07  -1.40244338753e-05  3.22663412498e-05
1.09093330589  1.1089876068  1.12291078941  m  1  1  1  v  -3.92118564325e-06  5.45610148414e-05  -4.34923931481e-07
1.06461803817  1.0767144854  5.55643129546  m  1  1  1  v  -2.20090657927e-05  -5.3545044529e-07  1.69975370252e-05
1.06752364065  5.53139566415  1.16875613912  m  1  1  1  v  2.00978039164e-07  6.24659718675e-06  -2.38537202989e-05
1.03678806932  5.49145885313  5.58994783862  m  1  1  1  v  1.69819284491e-05  3.52999992801e-05  -3.60001398044e-05
5.54227553736  1.15157836069  1.1535987032  m  1  1  1  v  4.89594820294e-06  -2.0523317423e-05  -5.42088695133e-06
5.50276229312  1.10412637397  5.57804105174  m  1  1  1  v  1.76307795907e-05  2.66566218539e-05  -1.40513262844e-05
5.48929213197  5.56792536657  1.19238308978  m  1  1  1  v  -1.39452949617e-05  1.09830283351e-05  -2.84603737904e-05
5.47560035205  5.53897915167  5.62926311356  m  1  1  1  v  2.5907775622e-05  1.544598437e-05  1.18033720827e-06
1.07135681735  3.30496188918  3.36313905106  m  1  1  1  v  2.15920527027e-06  2.49228455946e-05  -4.20510260939e-06
1.04349519091  3.25477442332  7.80307889329  m  1  1  1  v  1.17880211309e-05  -7.82244256971e-06  2.94142589223e-05
1.02747511996  7.74436467201  3.39445748454  m  1  1  1  v  -1.17780439914e-06  1.69858240707e-05  -3.73185656953e-06
1.000241974  7.70149965886  7.84382106781  m  1  1  1  v  -4.55736898023e-05  5.10088508439e-05  -2.49860542668e-05
5.49256378351  3.33797049196  3.379807715  m  1  1  1  v  1.22971176603e-05  -3.47424892603e-05  2.40722837765e-05
5.48160269452  3.29784307074  7.81176781594  m  1  1  1  v  -2.49934501961e-05  -5.18425507666e-06  -3.9190123572e-05
5.4509147473  7.76997142053  3.4179372742  m  1  1  1  v  -2.88503001617e-05  -1.29233618409e-05  3.42987239032e-05
5.43902072815  7.7365516269  7.86870236266  m  1  1  1  v  -6.06606577587e-05  1.41101308693e-06  3.926419669e-05

C #label
0 #magnetism
32 #number of atoms
0.0313302056624  0.0701024512279  0.0408810502582  m  1  1  1  v  5.14033805791e-05  -3.53975179349e-05  5.01615598597e-05
0.011796449973  0.0472936151702  4.47731153012  m  1  1  1  v  -3.49564946104e-05  -2.72899728935e-05  -3.96639917282e-05
-0.0139452100197  4.51880029913  0.0929301984841  m  1  1  1  v  1.11855563644e-05  -5.54331374466e-05  -2.85202011965e-05
-0.0221628446226  4.47637264669  4.52284740682  m  1  1  1  v  1.02670149018e-05  -1.13812066724e-05  9.17421495083e-06
4.44075797167  0.0362156922425  0.0318985154906  m  1  1  1  v  -3.4564990281e-05  2.16206945678e-05  -2.69083881351e-05
4.4109784057  -0.00369157927175  4.45622418058  m  1  1  1  v  -6.61145009469e-06  -2.37718539561e-05  -2.21947894974e-05
4.39533352128  4.47994019627  0.0670248608442  m  1  1  1  v  2.42805038455e-05  2.72167701778e-05  1.51302756405e-06
4.37243881623  4.43140392465  4.49676369606  m  1  1  1  v  8.7689095425e-07  2.86096704786e-05  4.79244357726e-05
0.000923675834295  2.28574324164  2.28077145367  m  1  1  1  v  -6.32455245672e-06  -2.95111270991e-05  -7.52984863861e-06
-0.03314645467  2.2305061926  6.72659378599  m  1  1  1  v  4.28953101311e-05  1.90035897295e-05  5.74391270615e-05
-0.029043221978  6.70241399196  2.33212936202  m  1  1  1  v  5.99544140987e-06  -4.4977418739e-05  -4.45290602256e-05
-0.0611709841213  6.67988490675  6.75818420572  m  1  1  1  v  -2.17049546518e-05  -7.70098582005e-05  2.80687337577e-05
4.40649956845  2.23691387218  2.2485905171  m  1  1  1  v  7.8077306335e-05  -4.91752671965e-05  1.00554887098e-05
4.38016763165  2.19606390081  6.703401865  m  1  1  1  v  -3.2330219295e-05  9.54760314657e-06  6.06049947329e-05
4.36889777259  6.674121008  2.29816850797  m  1  1  1  v  1.09070153235e-08  4.06399991487e-05  5.07395758176e-05
4.33630300202  6.62904922227  6.73149832395  m  1  1  1  v  1.92861628598e-05  4.80724403036e-06  9.74149433452e-07
2.20047649028  -0.00450570885302  2.23671336856  m  1  1  1  v  7.28418113835e-05  7.96953246256e-07  -1.48459162896e-05
2.18210277586  -0.0286270811853  6.66822491971  m  1  1  1  v  5.35786845957e-06  3.08828604155e-05  -4.98106218971e-05
2.17344380772  4.4294684319  2.27956635953  m  1  1  1  v  1.5888781866e-05  -4.7517400958e-05  4.30355136038e-05
2.14749841214  4.39693457607  6.69973985379  m  1  1  1  v  -4.84089564358e-05  -2.56876038298e-05  -4.50283348848e-05
6.63488162492  0.0372550614538  2.2654259674  m  1  1  1  v  -3.26623807208e-05  9.87912378403e-06  -4.73535894507e-05
6.61903737952  0.00855887606509  6.6747589056  m  1  1  1  v  1.72878384077e-05  2.54460938929e-06  1.72216041491e-05
6.62259480901  4.46873199523  2.29458718401  m  1  1  1  v  -7.52639675946e-05  1.62555048001e-05  1.16192960044e-05
6.57500848179  4.4310914475  6.73231727339  m  1  1  1  v  -3.08144377278e-05  -2.69444770293e-05  9.29187560716e-05
2.19178893409  2.23135230231  0.0353716452058  m  1  1  1  v  1.77852848625e-05  -7.08398904615e-07  -1.82397431004e-05
2.18407877851  2.19546518304  4.45889722194  m  1  1  1  v  2.79222341792e-05  -6.29508099695e-05  3.99229741533e-05
2.16293298375  6.66924895972  0.0657903614293  m  1  1  1  v  1.61708984036e-05  -1.70515722088e-05  7.68769641182e-05
2.14107880206  6.62546079521  4.51628054059  m  1  1  1  v  -1.54466266158e-05  -4.75494084166e-06  -7.56634806296e-05
6.63021920906  2.28025518145  0.0556264213764  m  1  1  1  v  1.4387864644e-05  -3.11479706246e-05  3.06544237109e-06
6.61461944972  2.23010990654  4.49360706001  m  1  1  1  v  -2.4696192286e-05  -2.63961180814e-05  6.35710686503e-05
6.59396112359  6.71444970651  0.103763910113  m  1  1  1  v  4.6622299377e-05  4.52199978439e-05  -2.14374462784e-05
6.57263825461  6.66824772995  4.52644912323  m  1  1  1  v  -4.9160368437e-05  5.45753590777e-05  5.97246082081e-05
