ATOMIC_SPECIES
Si 28.085 Si_ONCV_PBE-1.0.upf upf201
C 12.011 C_ONCV_PBE-1.0.upf upf201

NUMERICAL_ORBITAL
Si_gga_9au_100Ry_3s3p2d.orb
C_gga_9au_100Ry_3s3p2d.orb

LATTICE_CONSTANT
1.88972612546

LATTICE_VECTORS
8.84153069364 0 0 #latvec1
-0.149882536391 8.62365503939 0 #latvec2
-0.0884913278155 -0.166156925993 9.05516724417 #latvec3

ATOMIC_POSITIONS
Cartesian

Si #label
0 #magnetism
32 #number of atoms
3.30400143699  1.11885439445  3.37485919917  m  1  1  1  v  -0.000158432265739  -3.70405292004e-05  0.000116827015685
3.25959411406  1.07743791646  7.80150836323  m  1  1  1  v  -3.13392941905e-05  6.16721926535e-05  -0.000165870213206
3.26503755606  5.53284985326  3.39123136772  m  1  1  1  v  0.000237263290456  -2.48104432781e-05  -0.000237288700575
3.20654937121  5.50061981055  7.82543007816  m  1  1  1  v  -0.000192438480731  -6.57534523674e-05  4.94083492092e-05
7.72934606511  1.16238927568  3.36503338346  m  1  1  1  v  9.08629297818e-06  7.42700759263e-05  -5.76178954859e-05
7.71056601978  1.09038839102  7.81411917316  m  1  1  1  v  0.000151573252542  -0.000234166590971  9.85922130583e-05
7.69169457821  5.56717007247  3.41550385826  m  1  1  1  v  0.0001451840303  -0.000167006001409  -0.000177300772719
7.68033330533  5.5582916445  7.83972155818  m  1  1  1  v  0.000139207757826  0.000136513176271  -3.52464685943e-05
3.2903066706  3.34240227327  1.15972245236  m  1  1  1  v  -0.000241699511232  0.000205764197051  0.000134635171228
3.26052364416  3.32284701978  5.59676507013  m  1  1  1  v  5.2129196322e-05  -0.000158185855391  0.000163720197912
3.23841875961  7.76386601598  1.20183382602  m  1  1  1  v  0.00013660104473  -3.47266632297e-05  -0.000224126713917
3.25154789092  7.72415136946  5.65281229348  m  1  1  1  v  -8.44645060978e-05  -5.88223237603e-05  0.000164436940138
7.71768821503  3.39318110068  1.15335467899  m  1  1  1  v  6.08394056292e-05  -0.000102065965581  -0.00018518531931
7.70735427299  3.33657408762  5.61862019403  m  1  1  1  v  0.000142293760395  3.69387895011e-05  8.15856771725e-05
7.68476435105  7.78649443683  1.2255860289  m  1  1  1  v  -0.000162943502607  -0.000331833857742  0.000114990026678
7.681892508  7.76499478401  5.66314657986  m  1  1  1  v  0.000101301595579  0.000139405973607  -0.000130746058831
1.11101744518  1.12951968133  1.12595213497  m  1  1  1  v  0.000161087354258  3.1816613043e-05  4.42606546579e-05
1.04777161461  1.09894815712  5.56479703492  m  1  1  1  v  6.70526791153e-06  0.000175057604874  -0.000128792064894
1.04318293928  5.53195486693  1.17469930832  m  1  1  1  v  -8.28397538362e-05  -6.63222572638e-05  6.5739491562e-05
1.03357523119  5.50428074802  5.59057489019  m  1  1  1  v  5.59623065696e-05  -2.60938920601e-05  -8.07334087926e-05
5.54750427277  1.15210230234  1.15322387486  m  1  1  1  v  -0.000117680182451  0.000112453351233  0.000238467089909
5.51423881566  1.10445948182  5.56029486682  m  1  1  1  v  1.44263775145e-05  5.54044857935e-05  -8.38631966732e-05
5.49045580374  5.56787216872  1.18248225232  m  1  1  1  v  0.000200595713052  9.63126632146e-05  -0.00020568732018
5.47369108365  5.55402830547  5.63315290475  m  1  1  1  v  1.25898653289e-05  -8.8575727709e-05  0.000155227006385
1.06408395677  3.31825226659  3.36406553309  m  1  1  1  v  -0.000212227068248  8.69586556115e-05  0.00021229260524
1.04211496969  3.25363557576  7.81279702559  m  1  1  1  v  -8.37374977234e-05  -0.000132342892458  0.000104141053647
1.01289224858  7.74592195237  3.38499846199  m  1  1  1  v  -0.000187990191083  -2.48072889284e-05  8.48956594636e-05
1.01573553738  7.69617648095  7.84623105319  m  1  1  1  v  0.000176279439564  -3.653874303e-05  -7.07127423874e-05
5.49842025573  3.32985215177  3.38116738708  m  1  1  1  v  4.68901920424e-05  -9.69087833565e-05  0.000126636833723
5.47373355283  3.29579796986  7.80755979373  m  1  1  1  v  -0.000218617310011  -5.90404312701e-05  0.000126278811451
5.45488673133  7.76102569786  3.41902527075  m  1  1  1  v  2.41268173418e-05  0.000113562237445  0.000175900632159
5.43584611829  7.72633936943  7.86318443214  m  1  1  1  v  -6.22366505208e-05  -0.00019243522604  -7.31340018994e-05

C #label
0 #magnetism
32 #number of atoms
0.0550384611964  0.105215040092  0.0212301969455  m  1  1  1  v  -0.000221468494958  0.000139270350849  -9.33684429378e-05
0.0310514980734  0.0718054437226  4.47392365055  m  1  1  1  v  -4.43888197055e-05  0.000171532774174  -0.000160551755137
-0.0306356046695  4.51425266771  0.0754963818834  m  1  1  1  v  -0.000262347396318  0.000265095064758  -0.000110472281074
-0.00874469348779  4.44976449692  4.52550491474  m  1  1  1  v  -3.84239908137e-06  0.000121078773764  0.000236832543241
4.41951507009  0.0808125600754  0.0227635515758  m  1  1  1  v  0.000191265661141  0.000450047754966  0.000219623423732
4.41570666772  0.024112480354  4.46576257508  m  1  1  1  v  0.000258848678094  0.000217427662599  0.000277926250175
4.37353371233  4.48790107993  0.0409470464123  m  1  1  1  v  9.44117232216e-05  -0.000293874601147  6.12559913198e-05
4.36643411574  4.42433789362  4.48645888076  m  1  1  1  v  -0.000214975577109  -0.000112468855094  3.78536469074e-05
-0.0140842245977  2.28551851309  2.28103235443  m  1  1  1  v  -0.000106946611009  -0.00011309734246  0.000237024945706
-0.0483247138493  2.21979193223  6.71487038064  m  1  1  1  v  0.00018350875059  -0.000167554003756  4.60129589048e-05
-0.0246904258379  6.6868888949  2.32838714412  m  1  1  1  v  -2.59186590672e-05  0.000103317707315  -0.000398307296031
-0.0389581798155  6.67268055545  6.77068572532  m  1  1  1  v  -4.49736112115e-05  -0.000425959300777  0.000219837631262
4.39330713163  2.22139387239  2.26653871903  m  1  1  1  v  -0.000132811367888  -0.000122559498763  3.76684550803e-05
4.37068613453  2.17685071264  6.66409970888  m  1  1  1  v  -0.000168155181699  -7.17607112795e-05  -0.000275824896313
4.36197895928  6.64804891793  2.29894334417  m  1  1  1  v  -0.000417819573095  5.56185214305e-05  4.36827506003e-05
4.3386107526  6.62211637604  6.72988951398  m  1  1  1  v  0.000364685125189  -0.000211926215277  0.000208003977059
2.20367515073  0.011246468214  2.25149920072  m  1  1  1  v  0.000153670287459  0.000498419139708  0.000388342032695
2.18073676141  0.0263573848042  6.65726061208  m  1  1  1  v  -0.000247997907661  0.000201732611359  -0.000191072401889
2.16057158186  4.43215088795  2.31189470038  m  1  1  1  v  -0.000238281414269  4.05432904736e-05  0.0001688047983
2.15595319634  4.40373894784  6.67701459427  m  1  1  1  v  7.96648746862e-06  0.000206729911785  -0.000409037680527
6.65209132206  0.0782637679242  2.26744163801  m  1  1  1  v  8.13563127927e-05  0.0003214097412  0.00021153520042
6.64152237994  0.0207822140956  6.66755594399  m  1  1  1  v  0.000189575175289  -0.000178670078499  -0.000129071373304
6.63522988417  4.46894644445  2.30452478015  m  1  1  1  v  -6.69091947772e-05  7.58817521497e-05  0.000190037350557
6.55843139507  4.44398588614  6.74191542081  m  1  1  1  v  2.65618728978e-05  -0.000114729808732  0.000107155298582
2.19635315822  2.24696824155  0.00600308918076  m  1  1  1  v  -0.000298363631116  -7.18160031883e-08  -0.00037543832438
2.20446121147  2.19071076564  4.45987184348  m  1  1  1  v  0.000207713962363  -0.000146512742972  -1.39822903965e-05
2.15017216272  6.67361830856  0.0293318069049  m  1  1  1  v  -7.75722405093e-05  -2.17242732722e-05  -0.000200138058304
2.13895936695  6.62272942401  4.50225708691  m  1  1  1  v  -0.000194204806598  0.000215640413704  -7.68397495008e-06
6.62132635628  2.2681202563  0.0484329915289  m  1  1  1  v  0.000104442342763  -2.70144505717e-06  -4.91077706271e-05
6.60283784451  2.2341825666  4.48736666555  m  1  1  1  v  -0.000206821257995  -7.31161477825e-06  0.000255516165273
6.5720002904  6.71409390809  0.0959690794  m  1  1  1  v  -0.000138548901484  7.85399915425e-05  -8.0846469833e-05
6.58353044242  6.66205181234  4.53557856942  m  1  1  1  v  2.96366575837e-05  0.000258204934241  -0.00028260389722
