ATOMIC_SPECIES
Si 28.085 Si_ONCV_PBE-1.0.upf upf201
C 12.011 C_ONCV_PBE-1.0.upf upf201

NUMERICAL_ORBITAL
Si_gga_9au_100Ry_3s3p2d.orb
C_gga_9au_100Ry_3s3p2d.orb

LATTICE_CONSTANT
1.88972612546

LATTICE_VECTORS
9.4076700455 0 0 #latvec1
-4.55642902837 8.07118374242 0 #latvec2
0.112233870373 0.203797891062 10.3453996149 #latvec3

ATOMIC_POSITIONS
Cartesian

Si #label
0 #magnetism
36 #number of atoms
0.0313277410751  1.81597344232  2.52212165552  m  1  1  1  v  -1.37788624896e-05  -3.71899483551e-05  -4.57649570614e-05
3.18660131417  7.15027457254  2.4419016689  m  1  1  1  v  3.91410205612e-05  6.50635220285e-06  -1.92975095667e-05
-3.02291773477  7.21500351981  2.47397924159  m  1  1  1  v  -8.37155228491e-05  -5.97653325313e-05  7.89918915548e-05
4.74335531765  6.27830674975  5.00288301454  m  1  1  1  v  -6.59932391339e-05  7.6053378805e-05  8.88853259562e-05
1.57894994676  0.936433802327  5.06451855457  m  1  1  1  v  -8.96062683251e-05  2.87501101798e-05  -5.76247101033e-05
7.79647428982  0.89402012126  5.0177204354  m  1  1  1  v  -8.39314111953e-05  0.000167876430592  -8.31386929209e-05
0.0490814682799  1.86252314494  7.6109126545  m  1  1  1  v  -6.15119898287e-06  2.00877011476e-05  3.37459011497e-05
3.20735303032  7.21711376555  7.52994839599  m  1  1  1  v  -8.94981404221e-05  5.32954406611e-05  -9.42239332456e-05
-2.98111824337  7.24658339498  7.5713409871  m  1  1  1  v  -0.000114197029069  2.77765973199e-05  -4.882058955e-05
4.76931912064  6.30843520343  10.069518093  m  1  1  1  v  -3.34894781984e-05  -4.04386172403e-05  7.38387602641e-06
1.61487568814  0.965160093858  10.1489692445  m  1  1  1  v  -0.000124962674883  -3.32652191208e-05  -4.08510731217e-05
7.814695072  0.919587736079  10.1235922617  m  1  1  1  v  9.42294558911e-05  -5.6942587859e-06  -1.65897821299e-05
-1.51488566914  4.5107460975  2.49989225784  m  1  1  1  v  -0.000179613895482  -0.000113372293246  0.000142935389817
1.60137588327  4.4871802024  2.4855128999  m  1  1  1  v  0.000142545439729  -0.000169275173993  -1.62517823914e-05
0.0822449841942  7.18258375171  2.46916693294  m  1  1  1  v  8.82831843074e-06  -2.92031151441e-05  -0.000206435888736
6.26280696374  3.56583360715  5.02715643077  m  1  1  1  v  -1.7002003307e-05  0.000125699767926  0.000185709333622
3.14946191438  3.59413602738  5.01858555155  m  1  1  1  v  0.000122453657393  -0.000103424482452  -8.83164649671e-06
4.68138398681  0.903819957202  5.07827936632  m  1  1  1  v  -7.26764137897e-05  2.83225868315e-05  2.18449870215e-05
-1.46706144435  4.57182694326  7.57054952605  m  1  1  1  v  4.4672217307e-05  -9.35725668754e-05  6.58789230735e-05
1.61850612163  4.52135426739  7.59209272077  m  1  1  1  v  1.34361890995e-05  0.000109123780015  1.05394897983e-05
0.101819646712  7.24197754252  7.55727807064  m  1  1  1  v  -2.10423399135e-05  0.000203291248322  -3.17472439228e-05
6.29201442619  3.63419931472  10.0893763057  m  1  1  1  v  -5.66239006549e-05  7.18402434998e-05  -1.55051169261e-05
3.19043983866  3.64184327862  10.1133608462  m  1  1  1  v  0.000118448898933  0.000133655137772  0.000107943866561
4.70213473509  0.938709060749  10.1326498672  m  1  1  1  v  4.80571251769e-05  5.75971764714e-05  -5.34798200692e-05
3.12303569285  1.78200406502  2.49447796339  m  1  1  1  v  2.10779399759e-05  6.25789287506e-05  0.000124665819186
6.22124561201  1.76043675372  2.48667551028  m  1  1  1  v  -0.000162774427622  2.67960493022e-05  1.21532201484e-06
4.69623041178  4.44088557373  2.48375022166  m  1  1  1  v  1.70876629533e-05  -7.772106679e-05  0.00011736548072
1.62994464751  6.28993892358  5.01682105595  m  1  1  1  v  8.99751581059e-06  8.03931398217e-05  -7.35604190937e-05
-1.4777731086  6.31785141065  5.02856491868  m  1  1  1  v  3.37844040437e-05  -9.40660329529e-05  7.28717658238e-05
0.0724384319417  3.6205397496  5.06353397861  m  1  1  1  v  0.000100595311853  -9.94159872416e-05  -6.0887612842e-05
3.15377186734  1.83196971317  7.60166716758  m  1  1  1  v  -9.66492477785e-05  -0.000109510322299  0.00016574192577
6.26376565993  1.81964773527  7.55273697095  m  1  1  1  v  0.000104739937526  3.95422748474e-05  1.52546552135e-05
4.73592837018  4.51021941743  7.53987782569  m  1  1  1  v  6.42169118211e-05  -6.65855470048e-05  -9.41670351442e-05
1.65798970248  6.34304766123  10.1107738417  m  1  1  1  v  -8.15223580373e-05  -3.64557532832e-05  -4.14981716707e-05
-1.43716043522  6.37210959207  10.1017014274  m  1  1  1  v  -0.000176285311826  -1.40652844853e-05  1.40065012668e-05
0.0990613975385  3.68037401532  10.1411961847  m  1  1  1  v  -6.03008103536e-05  4.37886173994e-05  4.65701520403e-05

C #label
0 #magnetism
36 #number of atoms
0.0214091289088  1.82128545379  4.41904438132  m  1  1  1  v  -6.12993906976e-05  8.92835605629e-05  -6.18516435567e-05
3.18685775346  7.17173277859  4.37478817429  m  1  1  1  v  -0.000182662813187  9.24271036803e-05  1.84471430268e-05
-3.02911656248  7.22254148791  4.39591233687  m  1  1  1  v  2.85863268933e-05  -0.000220829987761  0.000232735500879
4.75691760874  6.31376972573  6.89194507267  m  1  1  1  v  -0.000153335441521  -4.14965878255e-05  0.000119458256342
1.58674853315  0.964087489702  6.97993542212  m  1  1  1  v  9.41463585592e-05  0.000151210322264  -0.000122073592394
7.8192263479  0.904427613084  6.92841315676  m  1  1  1  v  2.42930908386e-05  0.000359871072184  -2.20242400849e-05
0.0527580741744  1.87971595258  9.53409178726  m  1  1  1  v  -0.000350751274201  4.46555168539e-05  -0.000160611697634
3.19828142905  7.20611644322  9.44268153626  m  1  1  1  v  -0.000102827281555  -7.15141785447e-05  -0.000195076990886
-2.98377484067  7.27603399251  9.46341991069  m  1  1  1  v  9.65325680406e-05  -2.2863246776e-05  0.000147034484346
4.74224729665  6.23375655458  1.82685989407  m  1  1  1  v  0.000135450640359  -4.68038887201e-05  -0.000203134019949
1.56036405967  0.889771104014  1.87837259031  m  1  1  1  v  -0.000201689298718  -0.000103834048549  -0.000117989403553
7.78304025268  0.847731784309  1.86256012179  m  1  1  1  v  9.5265630861e-05  6.73577125671e-05  -2.63697302596e-05
-1.50453046817  4.54583840268  4.42520192651  m  1  1  1  v  9.54164676913e-05  3.43830704995e-05  -0.000166831985162
1.60805816293  4.52885949336  4.40934482274  m  1  1  1  v  -1.75502466428e-05  -0.00011971638764  -0.00020909920749
0.0872564827699  7.20432615685  4.38456383175  m  1  1  1  v  4.58799171891e-05  9.61586469682e-06  -1.59155065373e-05
6.26081085216  3.59617535642  6.94187318199  m  1  1  1  v  -6.92775605716e-06  2.9944797212e-05  0.000276500803472
3.1712092505  3.62532635344  6.93064336551  m  1  1  1  v  -0.000109205540582  1.93931659265e-05  9.65416596583e-07
4.70279013243  0.934195451218  6.95233798676  m  1  1  1  v  7.42689624873e-05  0.000256104190036  -0.000100832663479
-1.46560945514  4.56661799913  9.50744049138  m  1  1  1  v  -0.000165993897821  1.25072056229e-05  0.000246207888283
1.64941849483  4.56185880714  9.49108591776  m  1  1  1  v  -1.61386881385e-05  -0.0002184887443  -0.00014603001638
0.115557486638  7.26088184004  9.47875171588  m  1  1  1  v  0.000175239234136  -6.78770294113e-05  8.37908619802e-05
6.25699865931  3.54687418438  1.84288770235  m  1  1  1  v  0.000111086609522  2.19471813797e-05  0.00010655880227
3.13672613612  3.55710551866  1.85598047647  m  1  1  1  v  0.000119164427563  -0.000228818080749  -0.00018334949517
4.66811675723  0.868823793225  1.86703208472  m  1  1  1  v  0.000295524553278  0.000113174937955  6.74442423723e-05
3.12009368896  1.81328668025  4.41800252567  m  1  1  1  v  -0.000229505699592  0.000132844333945  0.000124120881024
6.24906650283  1.77917844909  4.40133175573  m  1  1  1  v  -0.000296559677385  -0.000259147700921  -0.000214323642933
4.71185268157  4.48470934625  4.38269425465  m  1  1  1  v  3.61004812836e-06  -2.26587195158e-05  -0.000167088367394
1.63470395737  6.32033279701  6.91991291237  m  1  1  1  v  -3.25456432073e-05  5.16018715341e-05  7.51065943864e-05
-1.4639115103  6.34316851914  6.95028185345  m  1  1  1  v  0.000212358323623  -6.94850577603e-05  8.6557959868e-05
0.0660303102636  3.64824571341  6.96005579037  m  1  1  1  v  9.77745097859e-05  0.000259159574124  -0.000120490174331
3.17608995389  1.8653483249  9.49801021752  m  1  1  1  v  -7.83384081507e-05  7.67980800697e-05  0.000192759520443
6.27409974174  1.83558507233  9.49585246767  m  1  1  1  v  2.24335847358e-05  -0.000168038786774  -0.000162497631312
4.74372059042  4.51230884533  9.48145313986  m  1  1  1  v  0.000150981519975  -7.93923455289e-06  -4.13176930967e-05
1.61709397817  6.26909833984  1.82999690307  m  1  1  1  v  1.51091467778e-05  -7.37487750455e-05  -0.000318045177248
-1.48960437805  6.27956392161  1.86127760547  m  1  1  1  v  0.00012402379019  -0.000318749133466  0.000159033858416
0.023896478454  3.5918928678  1.86758392869  m  1  1  1  v  -9.86609636007e-05  -0.000266032030709  -7.56811945712e-05
