ATOMIC_SPECIES
Si 28.085 Si_ONCV_PBE-1.0.upf
C 12.011 C_ONCV_PBE-1.0.upf

LATTICE_CONSTANT
1.8897261254578281

LATTICE_VECTORS
9.228241663976899 0.0 0.0 
-4.819292307066971 8.18557746277919 0.0 
-0.16281971341269363 0.15502231290631946 10.188429362232316 

ATOMIC_POSITIONS
Cartesian    # Cartesian(Unit is LATTICE_CONSTANT)
Si
0.0
36
-0.046096653382 1.812694587934 2.526640861578 1 1 1
2.987488042673 7.217581718616 2.512405428318 1 1 1
-3.210465028563 7.137553025233 2.461446586206 1 1 1
4.531107581064 6.364514760035 5.071029120044 1 1 1
1.498013223518 0.951804717226 5.089015073939 1 1 1
7.698733106178 1.031331696146 5.130081554749 1 1 1
-0.081565168834 1.839735675425 7.620001793808 1 1 1
2.953343268188 7.259742421044 7.602831294296 1 1 1
-3.248910049919 7.173426404336 7.550615373380 1 1 1
4.488785157363 6.398830837296 10.159641721328 1 1 1
1.452006650783 0.987285451827 10.177383223972 1 1 1
7.659410585654 1.069434893337 10.224711300632 1 1 1
-1.628647696630 4.476189844741 2.498259865778 1 1 1
1.476603749571 4.508712699889 2.520763466094 1 1 1
-0.109422045212 7.178843380955 2.487986964957 1 1 1
6.114710314023 3.695274672102 5.104844601881 1 1 1
3.013154368682 3.656768013305 5.081996078022 1 1 1
4.593055258247 0.988534989843 5.121087640555 1 1 1
-1.674411161099 4.512517983150 7.576951835118 1 1 1
1.427627843202 4.548840313007 7.607741643265 1 1 1
-0.150628452528 7.215430918728 7.573786599369 1 1 1
6.066992310253 3.739646768792 10.189286213179 1 1 1
2.968948147777 3.690312768316 10.168265769863 1 1 1
4.559075426748 1.028848987252 10.202738851663 1 1 1
3.056659757012 1.848000635934 2.551592014033 1 1 1
6.152594704010 1.884305249365 2.572524785412 1 1 1
4.571755462473 4.551436301854 2.542662918226 1 1 1
1.428994375965 6.321483225350 5.047915067738 1 1 1
-1.668422765606 6.283509273474 5.022552052380 1 1 1
-0.088991568216 3.616316381578 5.061244455415 1 1 1
3.010102924414 1.885957347063 7.645246409446 1 1 1
6.121875581063 1.926207534852 7.655526527727 1 1 1
4.535992966679 4.591627538914 7.623288185014 1 1 1
1.387117742107 6.356205102301 10.137075960183 1 1 1
-1.708797009949 6.320285067459 10.110285495607 1 1 1
-0.123636720795 3.650236817160 10.148375350536 1 1 1
C
0.0
36
-0.060049878515 1.822899037074 4.437798073401 1 1 1
2.974052080369 7.231196294547 4.422941888746 1 1 1
-3.227562845387 7.148628591996 4.377903319392 1 1 1
4.510964112323 6.375409216073 6.978878382075 1 1 1
1.479575035392 0.970246800213 6.993788411791 1 1 1
7.686038030202 1.044914086928 7.052656277690 1 1 1
-0.098581102920 1.861459987427 9.526319305668 1 1 1
2.927898060891 7.274661783640 9.510256195605 1 1 1
-3.272866956616 7.188613269391 9.457746330759 1 1 1
4.557335616129 6.339362234389 1.898168193493 1 1 1
1.524466898134 0.927656897694 1.916379590588 1 1 1
7.723378815362 1.006838163026 1.963535955643 1 1 1
-1.640945573252 4.489482394639 4.405668020274 1 1 1
1.459217196538 4.524232566159 4.435896472183 1 1 1
-0.129721233399 7.196776577293 4.402812842505 1 1 1
6.095142047610 3.707760354204 7.021201132284 1 1 1
2.996663073154 3.668615101645 6.991272166662 1 1 1
4.588996846752 1.005154957892 7.026945640270 1 1 1
-1.684492790344 4.529196628060 9.496092427806 1 1 1
1.410895174945 4.564741816758 9.521980801081 1 1 1
-0.169722004673 7.233865463212 9.483889195564 1 1 1
6.142810721046 3.672772872736 1.930157106496 1 1 1
3.035541346292 3.628602689990 1.902029299699 1 1 1
4.625645600561 0.965672379479 1.941230632835 1 1 1
3.039320469951 1.867272847968 4.459904722638 1 1 1
6.141372496289 1.901688343456 4.490447508607 1 1 1
4.552178812464 4.564196648933 4.463613329053 1 1 1
1.414083788318 6.335118435215 6.960648765867 1 1 1
-1.685053543782 6.296432045135 6.936911219935 1 1 1
-0.100272077804 3.632794581613 6.968256867129 1 1 1
3.006530188545 1.906667197759 9.548056436187 1 1 1
6.102932152319 1.943646403706 9.569598940566 1 1 1
4.518442352896 4.602797409679 9.542053981320 1 1 1
1.460774162326 6.303526503980 1.876397997348 1 1 1
-1.645727924198 6.256314810967 1.848790719821 1 1 1
-0.057015637367 3.590624330614 1.885058894798 1 1 1

NUMERICAL_ORBITAL
Si_gga_9au_100Ry_3s3p2d.orb
C_gga_9au_100Ry_3s3p2d.orb
