ATOMIC_SPECIES
Mo 95.940 ./Mo_ONCV_PBE-1.0.upf
S 32.065 ./S_ONCV_PBE-1.0.upf

NUMERICAL_ORBITAL
./Mo_gga_9au_100Ry_4s2p2d1f.orb
./S_gga_8au_100Ry_2s2p1d.orb

LATTICE_CONSTANT
1.88972

LATTICE_VECTORS
 20.0000000   0.0000000   0.0000000
  0.0000000   6.3806400   0.0000000
  0.0000000   3.1903200   5.5257800

ATOMIC_POSITIONS
Direct

Mo
0.0
4
  0.1859875   0.3333324   0.3333338 1 1 1
  0.1859875   0.3333324   0.8333338 1 1 1
  0.1859875   0.8333324   0.3333338 1 1 1
  0.1859875   0.8333324   0.8333338 1 1 1

S
0.0
8
  0.2642317   0.1666662   0.1666669 1 1 1
  0.1077433   0.1666662   0.1666669 1 1 1
  0.2642317   0.1666662   0.6666669 1 1 1
  0.1077433   0.1666662   0.6666669 1 1 1
  0.2642317   0.6666662   0.1666669 1 1 1
  0.1077433   0.6666662   0.1666669 1 1 1
  0.2642317   0.6666662   0.6666669 1 1 1
  0.1077433   0.6666662   0.6666669 1 1 1

