ATOMIC_SPECIES
Si 28.085 Si_ONCV_PBE-1.0.upf
C 12.011 C_ONCV_PBE-1.0.upf

LATTICE_CONSTANT
1.8897261254578281

LATTICE_VECTORS
8.631318214085251 0.0 0.0 
-0.2582608410801638 8.851231189244189 0.0 
-0.09128220763908725 0.0796291098860635 8.943320247028426 

ATOMIC_POSITIONS
Cartesian    # Cartesian(Unit is LATTICE_CONSTANT)
Si
0.0
32
3.229647481262 1.156748477883 3.280033154778 1 1 1
3.208352655153 1.174654101212 7.613582579138 1 1 1
3.164004778867 5.498590876660 3.263494782548 1 1 1
3.137746280089 5.520053164447 7.602108347132 1 1 1
7.591901163296 1.215761879542 3.303205009910 1 1 1
7.565350377244 1.232188301512 7.644022911974 1 1 1
7.513451591086 5.582573591587 3.277356642478 1 1 1
7.494431987956 5.579558321153 7.633384512522 1 1 1
3.215465945252 3.326198598652 1.083214247375 1 1 1
3.188713722061 3.345108434216 5.423833487878 1 1 1
3.127311255583 7.644468583867 1.067160517471 1 1 1
3.118560440930 7.691210536731 5.411099881121 1 1 1
7.557458882182 3.364522739557 1.111812507710 1 1 1
7.540779454252 3.390469640709 5.450741737734 1 1 1
7.513084976572 7.724733102117 1.081623923910 1 1 1
7.456118090082 7.733834849803 5.454055220045 1 1 1
1.063406832114 1.101989794224 1.080055037445 1 1 1
1.058097400817 1.130267167368 5.444716672790 1 1 1
0.987018679677 5.468739141896 1.067092263421 1 1 1
0.982152300558 5.479186217844 5.416112461853 1 1 1
5.414465728644 1.168369454868 1.124533653170 1 1 1
5.386458256850 1.185273475547 5.463016198442 1 1 1
5.368200005502 5.509415376768 1.092549562561 1 1 1
5.313722163320 5.542152823613 5.441655686367 1 1 1
1.029953163279 3.285644829438 3.262554006939 1 1 1
0.986158475246 3.331945477533 7.602367242719 1 1 1
0.973144150878 7.649459073056 3.220642573006 1 1 1
0.933639838884 7.653599501833 7.591344683043 1 1 1
5.387146472501 3.357376177311 3.263060443476 1 1 1
5.345467882648 3.387640033287 7.631915970076 1 1 1
5.307908209998 7.689357746270 3.230086547810 1 1 1
5.279050703657 7.729271778577 7.605732098853 1 1 1
C
0.0
32
8.692610210909 0.132476710916 0.052961685674 1 1 1
8.679898603128 0.135736076573 4.379072563021 1 1 1
8.640684132611 4.468182180240 0.022735295401 1 1 1
8.618884937967 4.477281225842 4.374716983026 1 1 1
4.359061578062 0.064068047792 0.016817899435 1 1 1
4.338080062626 0.063056062988 4.367563164148 1 1 1
4.289188328835 4.414158930414 0.004886417956 1 1 1
4.237057803169 4.438569953876 4.341910958832 1 1 1
8.632247788909 2.326196105624 2.210764959925 1 1 1
8.613951300163 2.334125390679 6.576718832666 1 1 1
8.585376063474 6.659585477762 2.174212280464 1 1 1
8.564739760794 6.683156725629 6.550099098725 1 1 1
4.322414391579 2.245705348492 2.199878622705 1 1 1
4.278224825710 2.259409596455 6.538675162835 1 1 1
4.248267510585 6.573289492529 2.148138835254 1 1 1
4.216938430932 6.615068228312 6.508606000023 1 1 1
2.158932892333 0.022321350364 2.185605537783 1 1 1
2.129195669969 0.060349186882 6.553319948262 1 1 1
2.099710109233 4.380948319675 2.167267555788 1 1 1
2.076430398686 4.410600998113 6.529781966926 1 1 1
6.489545143426 0.120001840747 2.207160610392 1 1 1
6.490726937226 0.113236224721 6.562663906670 1 1 1
6.443166002026 4.451476126294 2.198262722429 1 1 1
6.417981935407 4.470927856269 6.532763179271 1 1 1
2.148831728352 2.190078670887 -0.002107981993 1 1 1
2.098607351853 2.204597144207 4.344438159555 1 1 1
2.086343038097 6.544876606310 -0.006772709833 1 1 1
2.042834380331 6.558631942424 4.333371012343 1 1 1
6.485273302954 2.275182278603 0.024980823771 1 1 1
6.471566053256 2.301264898701 4.367055737661 1 1 1
6.426174749920 6.607388937442 0.011872725072 1 1 1
6.409828353483 6.631549793571 4.350235131606 1 1 1

NUMERICAL_ORBITAL
Si_gga_9au_100Ry_3s3p2d.orb
C_gga_9au_100Ry_3s3p2d.orb
