ATOMIC_SPECIES
Si 28.085 Si_ONCV_PBE-1.0.upf upf201
C 12.011 C_ONCV_PBE-1.0.upf upf201

NUMERICAL_ORBITAL
Si_gga_9au_100Ry_3s3p2d.orb
C_gga_9au_100Ry_3s3p2d.orb

LATTICE_CONSTANT
1.88972612546

LATTICE_VECTORS
9.16205933611 0 0 #latvec1
-4.74839639405 7.86359738895 0 #latvec2
-0.136369102986 0.247288158445 10.0665823739 #latvec3

ATOMIC_POSITIONS
Cartesian

Si #label
0 #magnetism
36 #number of atoms
-0.024291958919  1.82993853894  2.49850934782  m  1  1  1  v  0.00011278277696  0.000281367608194  -0.000159737441497
2.98869114309  7.15109998887  2.46164345857  m  1  1  1  v  0.000254748956864  0.000110218673868  -0.00024344603605
-3.1518298073  7.07927691584  2.4102247991  m  1  1  1  v  0.000169407065443  -6.84546812961e-06  0.000151683339416
4.48862864649  6.31467636841  4.9795832459  m  1  1  1  v  -8.7688267676e-05  -1.05746988455e-05  -1.72408497361e-05
1.47475811264  0.972721833544  5.03631732015  m  1  1  1  v  -4.81763206818e-05  -3.84384153053e-06  9.11298668762e-05
7.62154610544  1.04761095255  5.07804281574  m  1  1  1  v  -0.000116115656499  2.77715106974e-05  1.90747648665e-05
-0.0709087336819  1.85913184885  7.55125639147  m  1  1  1  v  0.00028086281611  -9.60824758647e-06  8.35243396951e-05
2.92451055505  7.21101662646  7.48273281284  m  1  1  1  v  -5.77110108144e-05  -0.000310909084291  -2.67119661393e-05
-3.18930086396  7.16947528804  7.46531397692  m  1  1  1  v  -9.37561009141e-05  0.000130505819152  0.000258243567769
4.44022154714  6.3774962626  10.0368035845  m  1  1  1  v  -0.000210357971594  -0.000163019176776  0.000100284608271
1.58491742515  0.785308339122  0.000503347319841  m  1  1  1  v  -6.83267868518e-05  0.000282595766434  4.40494149766e-05
7.73940959142  0.847471319909  0.0299270503576  m  1  1  1  v  6.18322209236e-05  0.000201468429187  -0.000144848768257
-1.61275238137  4.44003405408  2.46819358637  m  1  1  1  v  0.000187654786837  3.65150413794e-05  0.000181208387003
1.46832150414  4.49992326369  2.4826485268  m  1  1  1  v  -3.56520084708e-05  -7.15218352885e-05  0.000162660397028
-0.0942059866022  7.11409401644  2.41785880365  m  1  1  1  v  -6.07064123964e-05  0.000185123656653  0.000181333109591
6.06550707421  3.67172669725  5.04926859545  m  1  1  1  v  3.40420421785e-05  -0.000238327312252  -0.000136129656038
2.98744292299  3.63455351207  5.00640441942  m  1  1  1  v  -0.000233332593404  5.39417077097e-05  -0.000157519131142
4.55387497128  1.00387190561  5.0559361392  m  1  1  1  v  -0.000158684728379  -1.76135228778e-05  -0.00012806937244
-1.64243019935  4.51429438011  7.47574689262  m  1  1  1  v  -0.000166448779867  0.000208038612694  4.02608814718e-05
1.45332491979  4.55468089296  7.5111424162  m  1  1  1  v  5.16507986527e-05  -2.89293454925e-05  0.000192214853255
-0.117072443529  7.19652153503  7.46039977025  m  1  1  1  v  0.000154630550643  0.000206847209955  0.000150770320695
6.15735462589  3.47914460531  0.000205958093759  m  1  1  1  v  -0.000127230856984  -1.33244426408e-05  1.61626346506e-05
2.97309149197  3.69893490644  10.0558485807  m  1  1  1  v  6.04979818735e-05  -0.000166040756241  3.37783304005e-05
4.67995704894  0.822755055756  0.00404472448035  m  1  1  1  v  -9.47801123992e-05  0.000121088146413  -1.51163668082e-05
3.03651523383  1.84635650066  2.51438886587  m  1  1  1  v  9.42564095274e-05  -0.000277917205562  0.000206311024887
6.07825535039  1.86740394902  2.53826225257  m  1  1  1  v  0.000253831935517  0.000103945949581  -2.29343938555e-05
4.51939804187  4.51715849114  2.49890866226  m  1  1  1  v  0.000133935531619  0.000177889905359  2.69420990515e-05
1.44941775331  6.2897373261  4.95852812145  m  1  1  1  v  -4.1871779454e-05  2.51191456543e-05  -2.47769579069e-06
-1.62006414767  6.25740959176  4.94092400971  m  1  1  1  v  0.00017695076838  0.000160462490001  -0.000140384672282
-0.066905686171  3.61494962338  4.98782731173  m  1  1  1  v  -0.00012289702687  0.000218661570412  -0.000159324191721
2.98451679073  1.89164856256  7.55775026532  m  1  1  1  v  -0.000246995314312  5.50606550843e-05  7.60641280978e-05
6.08536142984  1.94250363095  7.5708361883  m  1  1  1  v  0.000201413649068  -5.92594399555e-05  6.28039951607e-05
4.50113557253  4.57488265177  7.5400174174  m  1  1  1  v  -0.000105109941793  -4.06879364817e-06  0.000212391823653
1.40288872471  6.34051921941  9.99469122644  m  1  1  1  v  -5.64627997344e-05  -7.66964509044e-05  4.46960075195e-06
-1.66996152624  6.31358253697  9.99059642765  m  1  1  1  v  -5.02770385317e-05  7.45170346007e-06  5.71578865337e-05
-0.0937365923101  3.66603960046  10.0057888275  m  1  1  1  v  0.000143908456554  -5.69743253077e-05  -0.000164744236938

C #label
0 #magnetism
36 #number of atoms
-0.0628152028493  1.84151126008  4.39048483795  m  1  1  1  v  0.000245136774646  0.00010323797903  2.15169725316e-05
2.94741284563  7.15799188657  4.33088775711  m  1  1  1  v  0.000238285654177  3.67103034592e-05  -0.000398597820756
-3.16924203572  7.13692423072  4.3150131354  m  1  1  1  v  -0.000265641885239  0.000292499940481  0.000328492097077
4.51567085156  6.30951812608  6.86459922596  m  1  1  1  v  -6.94745289673e-05  -0.000393009906167  0.000145164312055
1.47585867353  1.00329716696  6.90639018626  m  1  1  1  v  -0.000233922968196  -0.000231296346556  -0.000286981857315
7.60796892653  1.05291762917  6.94219148911  m  1  1  1  v  -0.000155546952854  -0.000434426134494  9.52548187848e-05
-0.106667039023  1.88708241186  9.42825241116  m  1  1  1  v  4.45908664447e-05  -6.917999442e-05  0.000132652553801
2.91661590449  7.22289827714  9.35908717063  m  1  1  1  v  -0.000187301396914  0.000318436570957  4.70146345898e-05
-3.19422010564  7.18228932659  9.34836871035  m  1  1  1  v  0.000324302743956  0.000233168145026  6.03608666692e-05
4.52631659031  6.24734440123  1.85388318148  m  1  1  1  v  -0.000138961952998  -5.98421985545e-05  0.00040383987014
1.5123639992  0.946383790949  1.87729420919  m  1  1  1  v  0.000168261862009  0.000169099975241  -1.06581567104e-05
7.64835376644  1.0160547918  1.9419661179  m  1  1  1  v  0.000143424950093  -0.000143046288675  -1.68125665231e-05
-1.63676336805  4.45048712035  4.33523482771  m  1  1  1  v  -0.000204108376885  -0.000358911887708  -0.000132638167654
1.44659729027  4.5241323881  4.33522278653  m  1  1  1  v  -0.000434986829404  8.65553180936e-05  -7.13600847298e-06
-0.100742427055  7.15224060503  4.33770736205  m  1  1  1  v  0.000206142039893  -0.000150755081961  -0.00031631523111
6.04688958423  3.71271803006  6.92317702705  m  1  1  1  v  -0.000125616030198  0.000197088051479  -0.000292236877996
2.96959329574  3.645833205  6.88974554485  m  1  1  1  v  8.243027527e-05  -0.000258222319887  0.00014203344369
4.56410658926  1.04220465191  6.92005364828  m  1  1  1  v  0.000191944714241  9.23416622624e-05  -5.38409473548e-05
-1.66177721894  4.52140507163  9.38554728194  m  1  1  1  v  -0.00024739246828  -9.76913446173e-05  -0.00032500998565
1.42644945667  4.57958102336  9.37733980301  m  1  1  1  v  0.000251310252001  0.000264663380689  0.000162046978072
-0.144711453506  7.20307163449  9.36556836367  m  1  1  1  v  0.000175609959169  -8.35529382273e-05  0.000309921772228
6.08011112265  3.62818626023  1.88029017018  m  1  1  1  v  0.000141393349071  5.20704788736e-05  -0.000347235403083
3.03561584258  3.58690754215  1.85800860852  m  1  1  1  v  0.000224579141772  -0.000149851893956  -0.000215073530998
4.59344826081  0.951527485009  1.9024124105  m  1  1  1  v  7.17683050948e-05  -5.51834381077e-05  -0.000154278094213
3.02533841668  1.88706253088  4.4025237119  m  1  1  1  v  2.44908959013e-05  8.84016758216e-05  -0.000251750145757
6.1035636478  1.88172404121  4.41393128587  m  1  1  1  v  0.000189118487926  4.94469105404e-05  2.42906873938e-05
4.55129451363  4.55032883135  4.37262160475  m  1  1  1  v  -7.92245908017e-05  7.20230849538e-05  -0.000253685932238
1.4490681525  6.29315492949  6.88470199719  m  1  1  1  v  5.15538651675e-05  -0.000201003038918  0.000254678438577
-1.65495393105  6.27201317785  6.84801823439  m  1  1  1  v  5.04193057435e-05  1.24022517288e-05  0.000162880996499
-0.0764779571583  3.63427828687  6.88103669722  m  1  1  1  v  0.000219802083811  -0.000254693785204  -4.63073401493e-05
2.96384272854  1.92688195807  9.44046649913  m  1  1  1  v  -0.000121658933015  -8.26487129153e-05  -0.000132195934548
6.05446242981  1.93768337208  9.45068620792  m  1  1  1  v  0.000153767356577  -0.00037999834529  -2.509676624e-05
4.49794911209  4.60231882914  9.42180866145  m  1  1  1  v  -0.000184014719609  -0.000180609519393  0.000318970954942
1.45851676153  6.21726922433  1.83111623193  m  1  1  1  v  0.000124725876266  -6.55895009183e-05  0.000200392155985
-1.59843473465  6.1774189062  1.84362731075  m  1  1  1  v  -1.75020623845e-05  -4.24726661471e-05  0.000298407969305
-0.0294604544091  3.57156908004  1.83442068852  m  1  1  1  v  -0.000262551951562  0.000164336353728  -0.000133508402882
