ATOMIC_SPECIES
Si 28.085 Si_ONCV_PBE-1.0.upf upf201
C 12.011 C_ONCV_PBE-1.0.upf upf201

NUMERICAL_ORBITAL
Si_gga_9au_100Ry_3s3p2d.orb
C_gga_9au_100Ry_3s3p2d.orb

LATTICE_CONSTANT
1.88972612546

LATTICE_VECTORS
9.16205933611 0 0 #latvec1
-4.74839639405 7.86359738895 0 #latvec2
-0.136369102986 0.247288158445 10.0665823739 #latvec3

ATOMIC_POSITIONS
Cartesian

Si #label
0 #magnetism
36 #number of atoms
-0.0313802479575  1.81262900067  2.49635127099  m  1  1  1  v  2.08222112447e-05  -5.34848695057e-06  1.34555746122e-05
2.97925456878  7.16001176557  2.46114124194  m  1  1  1  v  8.80550339023e-06  -1.47003972316e-05  2.75078094137e-05
-3.14661785752  7.0881378657  2.41040232047  m  1  1  1  v  -5.13704579227e-05  1.41017324051e-05  -1.22500325592e-05
4.50396552524  6.3251460176  4.97895638568  m  1  1  1  v  5.06210832341e-05  -5.44693153308e-05  3.69179263889e-06
1.48440766712  0.962576194183  5.03745936778  m  1  1  1  v  1.45510166814e-05  3.88272604189e-05  -2.83786180457e-05
7.63433237313  1.02898227002  5.07161894008  m  1  1  1  v  3.19016495298e-07  -5.67690194237e-06  5.60940028368e-06
-0.0680208894767  1.85878226272  7.54611833023  m  1  1  1  v  -3.59402677604e-05  -4.7374172969e-06  -8.39284815119e-07
2.93510862133  7.20785748331  7.48629043243  m  1  1  1  v  2.41853717426e-05  2.49994627707e-05  -4.10585253683e-05
-3.19178967515  7.16311721862  7.44937136161  m  1  1  1  v  4.91735204922e-05  1.34704857126e-05  -2.21277793633e-06
4.46086557044  6.37412775385  10.0282164743  m  1  1  1  v  4.51656259477e-06  -1.56630651859e-05  2.29569199702e-05
1.6012437318  0.785349284881  0.00305872559672  m  1  1  1  v  -3.60673516164e-06  4.31457733531e-05  -7.86229155721e-06
7.73213729348  0.843316701741  0.0375377405172  m  1  1  1  v  1.52729539727e-05  -3.04159189209e-05  -2.5113218204e-05
-1.60395769532  4.43921420251  2.45528450183  m  1  1  1  v  -6.1575338024e-06  -1.85475888336e-05  -2.91298305641e-05
1.46410340099  4.49353987566  2.47860348624  m  1  1  1  v  6.82219232602e-06  2.35216016119e-05  -9.81867343464e-06
-0.0852094864283  7.12139781786  2.43604638346  m  1  1  1  v  -9.31283028812e-06  -1.4861185074e-05  -4.55236308994e-05
6.06554233985  3.68170205427  5.04470751003  m  1  1  1  v  -1.31307426207e-07  -1.28883568417e-05  3.20378699329e-05
2.98820032271  3.63928149421  5.01429690274  m  1  1  1  v  -3.57207413218e-06  5.65397935133e-05  -1.06519198904e-06
4.56189436628  1.00033587326  5.04736691965  m  1  1  1  v  -2.18821980159e-05  7.66364199516e-07  1.65814596405e-05
-1.63457118934  4.50239396594  7.46110446615  m  1  1  1  v  6.00738108406e-07  7.63174208248e-06  -2.47717324543e-05
1.44532232943  4.54642700444  7.50974805773  m  1  1  1  v  1.7587874155e-05  3.70421200359e-05  -3.70673936403e-05
-0.116751317677  7.18041490182  7.45446207388  m  1  1  1  v  5.3533948387e-06  -1.94670914353e-05  -6.11241697166e-06
6.16651963605  3.48624789475  0.00374345562001  m  1  1  1  v  1.8244697657e-05  2.82925424105e-05  -1.48488975351e-05
2.96650860675  3.70216560921  10.0452130263  m  1  1  1  v  -1.37193485462e-05  1.24263692237e-05  -2.94349873755e-05
4.67140725152  0.813280875063  0.00912872548267  m  1  1  1  v  2.66233922009e-05  1.69441610939e-05  5.69915681345e-07
3.0378331813  1.83154899819  2.50519936054  m  1  1  1  v  2.58302585565e-06  2.65374634387e-05  -4.88169442525e-06
6.09271611235  1.85929110998  2.53038365854  m  1  1  1  v  1.23301498859e-05  -6.6101623716e-06  2.91507443929e-05
4.52817471076  4.51211509665  2.49997159099  m  1  1  1  v  -7.94985273518e-07  1.85029206306e-05  -4.40263366491e-06
1.437875524  6.28554384495  4.96403862228  m  1  1  1  v  -4.57363578911e-05  5.29439844793e-05  -2.59179792814e-05
-1.62026874861  6.26057141638  4.93767347366  m  1  1  1  v  1.28455016267e-05  -3.38609726261e-05  2.37431330036e-05
-0.0773131909227  3.61133853479  4.99149508622  m  1  1  1  v  -2.49032512124e-05  -3.9395597677e-06  -4.0296572377e-05
2.99756790776  1.89605282063  7.5547753774  m  1  1  1  v  -2.88074898566e-05  -1.177375606e-05  3.40952242417e-05
6.08534026265  1.93058061386  7.57349883127  m  1  1  1  v  -6.10086977136e-05  2.73674370865e-06  3.91217072301e-05
4.49906663371  4.56947622285  7.53942163621  m  1  1  1  v  3.16797747136e-05  -2.13812044224e-05  3.20890412082e-05
1.39698105701  6.34759287847  9.99854504189  m  1  1  1  v  -2.54901981885e-05  -1.6014034434e-05  -2.73751988562e-05
-1.66384882967  6.30969750607  9.9963130641  m  1  1  1  v  5.05569824879e-06  -3.46447231809e-05  -1.99980436516e-05
-0.102414994581  3.66332311477  10.0092227671  m  1  1  1  v  4.44762661357e-06  -5.48247991553e-06  4.95554440045e-06

C #label
0 #magnetism
36 #number of atoms
-0.0528398335965  1.82178527023  4.38249054091  m  1  1  1  v  -3.45923957259e-05  2.31947392564e-05  -2.78639326482e-05
2.96258970202  7.18420971964  4.35726272768  m  1  1  1  v  -6.29539355816e-06  -2.27555423688e-05  -2.3092418558e-05
-3.16460152502  7.11938759913  4.30942313181  m  1  1  1  v  2.49761263203e-05  2.88595732134e-05  9.06693765834e-07
4.50079900342  6.32344072921  6.8863115465  m  1  1  1  v  1.28495588891e-06  3.02695879223e-05  4.78883536891e-05
1.4745028839  0.982150728164  6.92249255338  m  1  1  1  v  -6.00497084141e-06  -2.85653333107e-05  -8.24729123228e-06
7.60793440462  1.05203521538  6.98033771781  m  1  1  1  v  4.3819650622e-05  2.05454783474e-05  5.7519950912e-05
-0.0867216247415  1.89913447123  9.42120893436  m  1  1  1  v  6.4663973941e-06  -4.42216575238e-05  -4.57011079404e-05
2.91940835981  7.22458440734  9.36912347317  m  1  1  1  v  -2.15743502958e-05  -7.66476759401e-05  2.7788686913e-05
-3.20518817076  7.17189979731  9.33439699595  m  1  1  1  v  7.94339240274e-05  -4.84710844697e-05  9.5541151639e-06
4.52064572256  6.27392586698  1.86033613043  m  1  1  1  v  -3.2330166362e-05  1.09733071286e-05  6.07247172409e-05
1.5105251259  0.929617007811  1.87313190545  m  1  1  1  v  4.08331703428e-07  4.2447731878e-05  5.07380830409e-05
7.6652607329  1.00451816782  1.94117927198  m  1  1  1  v  1.99204204328e-05  6.17470375692e-06  3.61194500694e-07
-1.62037829016  4.46025176395  4.3424281403  m  1  1  1  v  7.41341011426e-05  2.11513898427e-06  -1.56532505777e-05
1.46409493956  4.49119852392  4.36406051378  m  1  1  1  v  5.82099065719e-06  3.25707082865e-05  -5.10475635618e-05
-0.0966820490604  7.14660830158  4.32170855315  m  1  1  1  v  1.64812962036e-05  -4.67928482166e-05  4.29393618875e-05
6.05672960507  3.69271953862  6.92254312684  m  1  1  1  v  -4.86064611245e-05  -2.46948308442e-05  -4.62065171308e-05
2.98007168781  3.66846080784  6.89649585367  m  1  1  1  v  -3.26664090176e-05  1.13089011225e-05  -4.85603418362e-05
4.56914328503  1.03004677792  6.95025922782  m  1  1  1  v  1.78975427945e-05  3.88426838035e-06  1.68082798518e-05
-1.64166088971  4.53201230892  9.38480617877  m  1  1  1  v  -7.5791436763e-05  1.77636280098e-05  1.11371367816e-05
1.42674898221  4.56258515029  9.38856080142  m  1  1  1  v  -3.07957605584e-05  -2.59671471023e-05  9.34355141043e-05
-0.145581101995  7.22389009951  9.34629565356  m  1  1  1  v  1.84011013175e-05  5.91290742065e-07  -1.9088776954e-05
6.08218886646  3.62806740308  1.8923370604  m  1  1  1  v  2.86626021822e-05  -6.24158857762e-05  3.97885790174e-05
3.02299576454  3.59242550734  1.87596158615  m  1  1  1  v  1.67668790751e-05  -1.5952689281e-05  7.71966184706e-05
4.57419360849  0.946732363031  1.89532280052  m  1  1  1  v  -1.52391268922e-05  -3.50497059733e-06  -7.72180734408e-05
3.01795621471  1.87098684177  4.40481540616  m  1  1  1  v  1.49619373817e-05  -3.02222885472e-05  2.47818291774e-06
6.08883434354  1.8898133753  4.42438938506  m  1  1  1  v  -2.4602340928e-05  -2.54120505301e-05  6.37272349724e-05
4.53848761014  4.5315561402  4.38707451248  m  1  1  1  v  4.75924329625e-05  4.70840044982e-05  -2.23257699486e-05
1.43982510252  6.30131359822  6.85715737781  m  1  1  1  v  -4.93671056398e-05  5.65543139957e-05  5.98335135065e-05
-1.65202728579  6.25783290976  6.83722522908  m  1  1  1  v  3.89978628582e-05  -3.1159385664e-05  2.32768776533e-05
-0.0880918086754  3.62765334151  6.88053593866  m  1  1  1  v  -3.89061135847e-05  2.41624980458e-05  7.0394117947e-06
2.97391079917  1.91275734759  9.44675763514  m  1  1  1  v  2.3461407892e-05  -4.56840597088e-05  6.14269478324e-07
6.04724127196  1.95757592121  9.46173587168  m  1  1  1  v  -4.13939429452e-05  -1.0535026747e-05  1.99978088189e-05
4.49835517029  4.60689061117  9.42090761166  m  1  1  1  v  3.34761223275e-06  -2.0306499026e-05  -3.42453865083e-05
1.44929525398  6.22819280588  1.83093019721  m  1  1  1  v  -1.90023527478e-05  6.25243107546e-05  6.97428300338e-05
-1.60290762099  6.20889095869  1.82054277165  m  1  1  1  v  3.04790471808e-05  -4.47570255169e-05  3.52521851059e-05
-0.0305704931748  3.56466662242  1.8551861772  m  1  1  1  v  -3.61640007638e-05  -1.8604412712e-05  -4.22262413575e-05
