ATOMIC_SPECIES
Si 28.085 Si_ONCV_PBE-1.0.upf upf201
C 12.011 C_ONCV_PBE-1.0.upf upf201

NUMERICAL_ORBITAL
Si_gga_9au_100Ry_3s3p2d.orb
C_gga_9au_100Ry_3s3p2d.orb

LATTICE_CONSTANT
1.88972612546

LATTICE_VECTORS
8.80589541507 0 0 #latvec1
-0.263614654523 8.90639751257 0 #latvec2
-0.0599261683639 -0.0110889481299 8.90443828277 #latvec3

ATOMIC_POSITIONS
Cartesian

Si #label
0 #magnetism
32 #number of atoms
3.26459739907  1.13828584652  3.30774174014  m  1  1  1  v  4.15066847022e-05  -7.9531245767e-05  3.82042128064e-06
3.24792404411  1.16006433147  7.68654117085  m  1  1  1  v  -3.29694772844e-05  9.862712833e-05  9.20081603156e-05
3.19176778137  5.53257747083  3.31088175682  m  1  1  1  v  8.23655624018e-05  -9.98641873723e-05  4.86129675981e-05
3.18463201468  5.53726806167  7.71530870613  m  1  1  1  v  -0.000172408370493  6.83476895428e-05  5.75955735278e-05
7.65166513764  1.21253541071  3.31246387596  m  1  1  1  v  -5.73765009079e-05  -4.58963217919e-05  2.09223364438e-06
7.65013100557  1.20140796976  7.7188155547  m  1  1  1  v  5.65160205909e-05  -4.24180462934e-05  7.03553343505e-05
7.57812750791  5.60680092008  3.34296292272  m  1  1  1  v  -9.58493844896e-05  -8.07120708565e-05  0.000107156138817
7.58920618213  5.60219097916  7.68958649135  m  1  1  1  v  0.000199789831644  0.000107712102088  -0.000106420463225
3.23279305729  3.33282727945  1.13040793599  m  1  1  1  v  -0.000163200968253  -0.000170623160476  -4.35184487131e-05
3.22498069179  3.34966376446  5.50242600764  m  1  1  1  v  -2.42817628487e-06  -5.08189987811e-05  4.40399933781e-06
3.17629670131  7.73987551167  1.11209225324  m  1  1  1  v  -0.000148989839366  4.79842166749e-06  0.000159817858335
3.17287689716  7.73755020322  5.48654292491  m  1  1  1  v  7.75904541922e-05  -1.70499354008e-05  4.95614215101e-05
7.6230426101  3.41181894029  1.11403000129  m  1  1  1  v  -6.08948315239e-05  1.73783409245e-05  -6.77405127044e-05
7.61172672737  3.39380410451  5.51657714594  m  1  1  1  v  -2.21894963778e-05  8.031838797e-05  1.78633729881e-05
7.55943834208  7.80484142588  1.13590725256  m  1  1  1  v  1.40448076233e-05  3.26231777004e-05  -1.5413762741e-05
7.56696690456  7.79866886588  5.54457982583  m  1  1  1  v  -1.0245678666e-06  0.000106184835739  -6.13959457612e-05
1.08198632685  1.11645538705  1.1028898194  m  1  1  1  v  7.35062498888e-05  0.000222143435727  0.00010870197867
1.06774437531  1.12768235942  5.50621406805  m  1  1  1  v  -4.15368502709e-05  0.000193506510174  -8.21503194314e-06
1.01924651582  5.51443944779  1.11449221464  m  1  1  1  v  -0.000193823586588  2.18302336055e-05  4.70875881829e-05
1.00620360167  5.50138967662  5.50558861567  m  1  1  1  v  -0.000206425018655  2.97105675961e-05  -6.91271312012e-06
5.45762236824  1.16746571462  1.11286146489  m  1  1  1  v  4.15390737178e-05  -0.00011620049587  -2.7272085666e-05
5.46018503077  1.18293238734  5.50756499554  m  1  1  1  v  -2.19362021214e-05  -3.86633856365e-05  -6.7905339655e-05
5.39691021026  5.56175561252  1.10790635621  m  1  1  1  v  1.48949087704e-05  -8.56091273064e-05  -5.87582794986e-05
5.40516575397  5.59587539763  5.50526366404  m  1  1  1  v  -4.67975263632e-05  0.000108593131183  4.00991140394e-05
1.03852277151  3.31117007666  3.29608193949  m  1  1  1  v  -3.26261616765e-05  0.000172921084044  5.18121041377e-05
1.03260932329  3.32811690578  7.70177248629  m  1  1  1  v  -5.16877448295e-05  -4.99337574232e-05  -7.90156554701e-05
0.965555501358  7.71368410741  3.29174407729  m  1  1  1  v  -9.7485853046e-05  3.40842751483e-05  -0.000118952274435
0.983593486929  7.69112900326  7.69731004007  m  1  1  1  v  -7.00006559832e-06  1.10469920732e-05  9.46252134555e-05
5.43556251653  3.36342078591  3.31369214248  m  1  1  1  v  3.61165332097e-06  1.82369810004e-05  -0.000157357273568
5.4143262273  3.36764880991  7.69147680769  m  1  1  1  v  6.23737706628e-05  4.54597883594e-05  -9.68804453657e-05
5.36369473462  7.77425462416  3.30297273618  m  1  1  1  v  5.47652002784e-05  9.60996583028e-05  -9.05005052619e-06
5.34096242789  7.76263887213  7.70698247529  m  1  1  1  v  2.84567950772e-05  -0.000159781725165  -2.52469615858e-05

C #label
0 #magnetism
32 #number of atoms
8.79354344044  0.143744281837  0.0229146378292  m  1  1  1  v  -2.09936063604e-05  1.84969549495e-06  9.46100740049e-05
8.76310647356  0.130701774022  4.41811445702  m  1  1  1  v  0.000272660698652  -3.70452672678e-05  -3.05456927669e-05
-0.0885310754591  4.51256012837  0.0309458041238  m  1  1  1  v  -3.69094119257e-05  -4.23851508769e-05  -0.000211309630192
-0.121239805596  4.5252727814  4.42433973341  m  1  1  1  v  4.34451744777e-05  -0.000123280449209  0.000110073367833
4.40078226925  0.0640985495606  0.000547347780273  m  1  1  1  v  -0.00013114046014  0.000106467337389  0.000100310571684
4.40019617694  0.0706517945262  4.42209290245  m  1  1  1  v  1.85529423509e-05  -0.000246280887155  7.73792665342e-05
4.32761323491  4.45529487233  0.0060147157275  m  1  1  1  v  -0.000252062793154  -0.00017056821777  -0.000271834335728
4.31092633824  4.4467451461  4.41850240816  m  1  1  1  v  -0.000129917075838  0.000301773775189  0.000187550970552
-0.0636285563039  2.32690331655  2.2377690869  m  1  1  1  v  1.39524524738e-05  -1.1417523644e-05  -8.42828483171e-05
-0.0797169172281  2.32070131934  6.62617835948  m  1  1  1  v  -1.30166139134e-05  7.6610136491e-05  4.48401857082e-06
-0.14718216526  6.69823865608  2.22627343262  m  1  1  1  v  -7.33766019186e-05  4.18837972189e-05  0.000111788670128
-0.129478925351  6.70478267337  6.60582963067  m  1  1  1  v  4.89424074861e-05  -7.66767977016e-05  0.000147752175584
4.33294231668  2.24658975643  2.20941302649  m  1  1  1  v  5.1529601676e-05  -9.04605389029e-05  0.000161254863434
4.34702224947  2.27401843105  6.58683810438  m  1  1  1  v  -0.000125005387545  -9.01335397107e-05  -0.000260049489727
4.28945442017  6.63979208907  2.2112760523  m  1  1  1  v  1.61463515316e-05  -0.000206300464221  0.000226189171343
4.26028067117  6.65382103524  6.60218202553  m  1  1  1  v  -0.000179854129255  -0.000201352923032  -0.000320322928389
2.19472091336  0.0278703123718  2.2069185752  m  1  1  1  v  -3.96462315252e-05  -0.000147677245669  -0.000151573198071
2.15464400993  0.0408491571563  6.59863398708  m  1  1  1  v  9.96106801534e-05  6.25665420506e-05  -0.000216361094217
2.11254176235  4.41868100423  2.20828237271  m  1  1  1  v  -0.000102221667989  -0.000211782974954  0.000176618213084
2.1280880426  4.42723771796  6.58562091685  m  1  1  1  v  -0.000187305770265  0.00011480843343  -4.62295001905e-05
6.58248744924  0.111544075791  2.21865888297  m  1  1  1  v  -0.000103104630291  -5.03683490122e-05  -2.23435094044e-05
6.57894259666  0.0801812483555  6.60804817423  m  1  1  1  v  9.23922440205e-06  2.92140001335e-05  -3.61955533101e-05
6.52322150888  4.46775905674  2.2029976337  m  1  1  1  v  0.000135912340648  0.000112101825175  -0.000105017569506
6.4951322105  4.47798465299  6.61867272379  m  1  1  1  v  -4.85836822071e-05  0.000342701137312  0.000137380834171
2.09511048605  2.21240999629  8.89900502334  m  1  1  1  v  4.45362100454e-05  2.15981202853e-05  -0.000101195500691
2.15511557195  2.22982972846  4.39325251332  m  1  1  1  v  -0.000111172633961  -0.000184295675521  9.45127106834e-05
2.10711125492  6.61187523551  0.0151442776184  m  1  1  1  v  -8.34651397909e-05  9.90598098466e-05  -9.24335283985e-05
2.08251127728  6.60573566288  4.39922283421  m  1  1  1  v  0.000114083230553  0.000143562127754  8.400717604e-05
6.54934330902  2.29360769284  0.0207142407674  m  1  1  1  v  -0.00010659024299  -8.59972001563e-06  0.000152789850807
6.5326198521  2.27984016274  4.41184341795  m  1  1  1  v  7.68818692897e-05  -0.000155706459052  -3.65429551598e-05
6.49235541615  6.69191376557  0.037255405708  m  1  1  1  v  -1.72279125481e-05  5.59426530863e-05  -0.000114353490502
6.48061678974  6.69458627352  4.41228049084  m  1  1  1  v  -2.79920770154e-05  6.23108119582e-05  4.41012204458e-05
