ATOMIC_SPECIES
Si 28.085 Si_ONCV_PBE-1.0.upf upf201
C 12.011 C_ONCV_PBE-1.0.upf upf201

NUMERICAL_ORBITAL
Si_gga_9au_100Ry_3s3p2d.orb
C_gga_9au_100Ry_3s3p2d.orb

LATTICE_CONSTANT
1.88972612546

LATTICE_VECTORS
8.80589541507 0 0 #latvec1
-0.263614654523 8.90639751257 0 #latvec2
-0.0599261683639 -0.0110889481299 8.90443828277 #latvec3

ATOMIC_POSITIONS
Cartesian

Si #label
0 #magnetism
32 #number of atoms
3.2690882721  1.14118424785  3.31801368032  m  1  1  1  v  -0.000158387143077  -5.78858715633e-05  0.000121978461193
3.23992679928  1.16371227746  7.68585136676  m  1  1  1  v  -3.3782849183e-05  4.19202323688e-05  -0.000175570623402
3.20772611148  5.52464405678  3.30581778957  m  1  1  1  v  0.000238988433803  -3.09309314246e-05  -0.00023585851731
3.17505777624  5.53861256515  7.7102098369  m  1  1  1  v  -0.000195534038914  -6.4720952393e-05  3.35024896063e-05
7.64147234736  1.21202048754  3.31278074912  m  1  1  1  v  1.68819556894e-05  5.24128500101e-05  -5.96452605742e-05
7.64371074612  1.1970080685  7.72911860855  m  1  1  1  v  0.000155649650825  -0.000251116844369  8.02255281762e-05
7.5737195294  5.59509525968  3.34000967035  m  1  1  1  v  0.000150048657369  -0.0001758037738  -0.000183970900955
7.59285680987  5.60831443593  7.67624014639  m  1  1  1  v  0.000143691888689  0.000139551262565  -3.66764850634e-05
3.22722861103  3.34117448727  1.13283449619  m  1  1  1  v  -0.000238687011464  0.000200162790802  0.000131326989845
3.22430883666  3.34614025753  5.51566835736  m  1  1  1  v  5.09775720399e-05  -0.000158114250858  0.000160336669111
3.16359478457  7.73930237941  1.12039927487  m  1  1  1  v  0.000126925650027  3.59538550977e-05  -0.000208639590506
3.18588749174  7.74544994643  5.49712461247  m  1  1  1  v  -9.20935687591e-05  7.21707201236e-06  0.000176791700656
7.61909996447  3.41464170909  1.09697415715  m  1  1  1  v  6.55001825445e-05  -0.000109089254741  -0.000179584909089
7.61043782739  3.39498674744  5.52070190009  m  1  1  1  v  0.000151093617816  3.08799682322e-05  8.11985119927e-05
7.54204068122  7.79094224841  1.14465389987  m  1  1  1  v  -0.000163214731236  -0.000261924287059  0.000125921524092
7.56939639127  7.80911914531  5.54655729433  m  1  1  1  v  9.21230963159e-05  0.000213434545221  -0.000120909305182
1.09879502433  1.12561037632  1.10139756769  m  1  1  1  v  0.000153751409489  1.61762931746e-05  4.91637545769e-05
1.05187135732  1.13633656839  5.50625365988  m  1  1  1  v  -1.1689458013e-05  0.000156354051667  -0.000134354349762
0.994994695569  5.51193842051  1.11448248302  m  1  1  1  v  -9.31331887505e-05  -6.99019614585e-05  6.99109502456e-05
1.00557463642  5.50340654526  5.49778607895  m  1  1  1  v  4.44790826792e-05  -2.61667273119e-05  -8.65487923813e-05
5.4626112941  1.17207822633  1.11883721546  m  1  1  1  v  -0.000109994807883  9.20426898146e-05  0.000239290484697
5.47083544889  1.17167066371  5.48980228929  m  1  1  1  v  1.78686108243e-05  2.9070509445e-05  -8.50767857239e-05
5.39898060445  5.56598449006  1.10033097185  m  1  1  1  v  0.000205822249769  8.81267837927e-05  -0.000198061625582
5.40880724561  5.60273507536  5.51787978396  m  1  1  1  v  7.34459083024e-06  -0.000100694340607  0.000159909001698
1.0280210033  3.32262773209  3.28966387942  m  1  1  1  v  -0.000220967005872  8.80341145018e-05  0.000219117253868
1.02751112694  3.3239072577  7.69858932875  m  1  1  1  v  -9.42078029636e-05  -0.000132140884787  9.31852175569e-05
0.955956832549  7.7233271522  3.27832088969  m  1  1  1  v  -0.000200225892835  4.74733354888e-05  8.66266758366e-05
0.991961615176  7.7051022234  7.6973377481  m  1  1  1  v  0.00016560024006  3.5886547072e-05  -8.59952410393e-05
5.43557315421  3.35477005595  3.31344766011  m  1  1  1  v  4.21012278217e-05  -0.00010119431017  0.000125232933041
5.40532299704  3.36248822176  7.68782466639  m  1  1  1  v  -0.000214262281743  -5.69991293658e-05  0.000118497954432
5.36499895334  7.77240180848  3.30670477092  m  1  1  1  v  1.59651366111e-05  0.000187107576637  0.000184277079324
5.34254311695  7.76500798854  7.69792010595  m  1  1  1  v  -5.88472641455e-05  -0.000123217278335  -7.90194303079e-05

C #label
0 #magnetism
32 #number of atoms
0.012078506269  0.146669990033  0.0147470295918  m  1  1  1  v  -0.000217794072104  -8.68531356252e-06  -7.3220111823e-05
-0.01664401556  0.127465436723  4.41669338611  m  1  1  1  v  -8.39467031769e-06  4.29189891373e-05  -0.000172879029653
-0.0910904284008  4.51043555109  0.0273204713272  m  1  1  1  v  -0.000256861015135  0.000259359857569  -9.75791473823e-05
-0.0901297743821  4.5030144318  4.42795751561  m  1  1  1  v  1.97790317429e-05  0.000120249445717  0.000240396332325
4.37821451861  0.0761506075571  0.00193712665802  m  1  1  1  v  0.000181205424271  0.000320424412304  0.000242103498045
4.40152156221  0.0669842700154  4.41619208451  m  1  1  1  v  0.000269962597341  8.24560569724e-05  0.000250155219225
4.25407860621  4.45414666545  8.89821937025  m  1  1  1  v  8.3262437595e-05  -0.00030331582712  8.39708312331e-05
4.30456822584  4.43644475659  4.41174325664  m  1  1  1  v  -0.000213039572718  -9.11244353561e-05  2.70021728035e-05
-0.0739376728657  2.32666386475  2.23305258705  m  1  1  1  v  -9.70128757724e-05  -0.000118127905601  0.000228818181453
-0.0920174380329  2.31330633782  6.61003225845  m  1  1  1  v  0.000195575472566  -0.000171013644496  4.91265863912e-05
-0.131588713821  6.69049530109  2.22971943565  m  1  1  1  v  -6.26477170305e-07  0.000121876797364  -0.000389016314584
-0.10820010704  6.71046976239  6.6257951495  m  1  1  1  v  -2.51002660281e-05  -0.000408071663398  0.000227928777219
4.32559253754  2.22973773223  2.22121668401  m  1  1  1  v  -0.000129052225333  -0.000104931119644  3.41254130116e-05
4.33578125635  2.2405029499  6.5553715631  m  1  1  1  v  -0.000174588188896  -6.49970636425e-05  -0.000267108629947
4.28954968089  6.62931207919  2.22010789724  m  1  1  1  v  -0.000426823932657  8.13729259591e-05  3.91929815682e-05
4.26109810148  6.64883553306  6.60580328477  m  1  1  1  v  0.000363709204734  -0.000190368443794  0.0001961801065
2.20112089526  0.0124109665273  2.22622145546  m  1  1  1  v  0.000157929900958  0.000356248465101  0.000368273478144
2.1621919957  0.0626392820764  6.57946221378  m  1  1  1  v  -0.00021601378149  7.8198099565e-05  -0.000209344303124
2.10464559383  4.42931176409  2.23917155259  m  1  1  1  v  -0.000236294911499  5.42279514496e-05  0.000174134783644
2.12602707902  4.43518485755  6.56963952679  m  1  1  1  v  9.82476585351e-06  0.000224750964449  -0.0004047319868
6.60001327885  0.116932062526  2.20698562946  m  1  1  1  v  8.59652431419e-05  0.000177542467233  0.000205556686848
6.59416958186  0.0786938952686  6.59763600344  m  1  1  1  v  0.000225278206284  -0.000302981403727  -0.000163523879602
6.52450471219  4.47717650865  2.22168117815  m  1  1  1  v  -5.81168674693e-05  9.51859871312e-05  0.000199721267243
6.48195321862  4.48406232233  6.62757555564  m  1  1  1  v  1.82234086435e-05  -8.99370343781e-05  9.97775707975e-05
2.09560558714  2.2307553691  8.88210142761  m  1  1  1  v  -0.000293255943584  -7.99045745536e-06  -0.000355228485766
2.17355616948  2.22207993682  4.40124049767  m  1  1  1  v  0.000208566802004  -0.000140820292239  -2.59757361862e-05
2.03804641323  6.6036306618  8.8841969393  m  1  1  1  v  -8.08416330383e-05  -1.29670982762e-05  -0.000177413206262
2.08072825382  6.60767368738  4.38466906015  m  1  1  1  v  -0.000194050520019  0.000244975938612  -2.16887253199e-06
6.54166197756  2.27349503249  0.0168368495626  m  1  1  1  v  9.36824938451e-05  -7.474369983e-06  -2.96319008499e-05
6.52509291993  2.28772238342  4.41014749086  m  1  1  1  v  -0.000204083948436  -2.37818689348e-06  0.000255945729319
6.47754446796  6.68295354921  0.0325524553325  m  1  1  1  v  -0.00015072546528  8.29991095627e-05  -6.94278618793e-05
6.47965793991  6.68971488242  4.42860079935  m  1  1  1  v  3.2715840315e-05  0.000285968478168  -0.000280130699694
