ATOMIC_SPECIES
Si 28.085 Si_ONCV_PBE-1.0.upf upf201
C 12.011 C_ONCV_PBE-1.0.upf upf201

NUMERICAL_ORBITAL
Si_gga_9au_100Ry_3s3p2d.orb
C_gga_9au_100Ry_3s3p2d.orb

LATTICE_CONSTANT
1.88972612546

LATTICE_VECTORS
8.80589541507 0 0 #latvec1
-0.263614654523 8.90639751257 0 #latvec2
-0.0599261683639 -0.0110889481299 8.90443828277 #latvec3

ATOMIC_POSITIONS
Cartesian

Si #label
0 #magnetism
32 #number of atoms
3.26776629914  1.14364577814  3.30655132911  m  1  1  1  v  2.01770079589e-05  -6.57608105145e-06  1.39095932127e-05
3.2446096481  1.15452564902  7.68262927965  m  1  1  1  v  8.30615591861e-06  -1.58144801691e-05  2.77912654796e-05
3.19773589628  5.53691232496  3.31093262468  m  1  1  1  v  -5.11394045277e-05  1.26380563744e-05  -1.14840056858e-05
3.19283277032  5.53505806742  7.70795358213  m  1  1  1  v  4.96141886441e-05  -5.51006930217e-05  4.26432159899e-06
7.65374009159  1.20581071144  3.32209030234  m  1  1  1  v  1.3981931597e-05  3.70634720726e-05  -2.74168264091e-05
7.64893426515  1.20865817772  7.7223687105  m  1  1  1  v  -7.73241070022e-08  -6.90050982369e-06  6.15865379865e-06
7.58090125351  5.60565840479  3.340924737  m  1  1  1  v  -3.58965021797e-05  -5.97242840941e-06  -2.11758762705e-07
7.58453919795  5.59152607032  7.69193186855  m  1  1  1  v  2.34993472503e-05  2.34035127965e-05  -3.99428281672e-05
3.24298759467  3.34309632542  1.12631268261  m  1  1  1  v  4.81841960591e-05  1.20144715974e-05  -1.56858076568e-06
3.22165589665  3.35067019581  5.51209850793  m  1  1  1  v  4.06927322086e-06  -1.6765463499e-05  2.32956136015e-05
3.18233061943  7.7405178001  1.11092180805  m  1  1  1  v  -3.95542596574e-06  4.13295679698e-05  -7.14952199395e-06
3.17079156451  7.73935667146  5.48852315244  m  1  1  1  v  1.46951061928e-05  -3.1339250761e-05  -2.41910611794e-05
7.62536932465  3.41190050702  1.11034931235  m  1  1  1  v  -6.47526364639e-06  -1.96149755154e-05  -2.81589208966e-05
7.61323236709  3.3926346213  5.52005799037  m  1  1  1  v  6.34691779131e-06  2.19435895493e-05  -9.08215779425e-06
7.55759061939  7.80343893143  1.13935254681  m  1  1  1  v  -9.59226192736e-06  -1.59733164086e-05  -4.43537373568e-05
7.55898126826  7.79621021657  5.54291623229  m  1  1  1  v  -5.22182108639e-07  -1.40244338753e-05  3.22663412498e-05
1.08032147016  1.10791740573  1.09729846967  m  1  1  1  v  -3.92118564325e-06  5.45610148414e-05  -4.34923931481e-07
1.07268379866  1.11785508205  5.49904854425  m  1  1  1  v  -2.20090657927e-05  -5.3545044529e-07  1.69975370252e-05
1.02171140449  5.51257261558  1.10772765728  m  1  1  1  v  2.00978039164e-07  6.24659718675e-06  -2.38537202989e-05
1.0114733508  5.49103850872  5.49847799867  m  1  1  1  v  1.69819284491e-05  3.52999992801e-05  -3.60001398044e-05
5.45568031213  1.17548865893  1.11918807227  m  1  1  1  v  4.89594820294e-06  -2.0523317423e-05  -5.42088695133e-06
5.45860544534  1.17661178492  5.5077596229  m  1  1  1  v  1.76307795907e-05  2.66566218539e-05  -1.40513262844e-05
5.3965432552  5.56803711104  1.10866587691  m  1  1  1  v  -1.39452949617e-05  1.09830283351e-05  -2.84603737904e-05
5.41176938268  5.59066335492  5.51293796674  m  1  1  1  v  2.5907775622e-05  1.544598437e-05  1.18033720827e-06
1.03710284378  3.3092957078  3.28732583676  m  1  1  1  v  2.15920527027e-06  2.49228455946e-05  -4.20510260939e-06
1.03125833576  3.32536176469  7.69117372382  m  1  1  1  v  1.17880211309e-05  -7.82244256971e-06  2.94142589223e-05
0.973167652313  7.70602273414  3.28769777056  m  1  1  1  v  -1.17780439914e-06  1.69858240707e-05  -3.73185656953e-06
0.978173694861  7.6946312616  7.69866507484  m  1  1  1  v  -4.55736898023e-05  5.10088508439e-05  -2.49860542668e-05
5.43069724673  3.36406819234  3.31232892334  m  1  1  1  v  1.22971176603e-05  -3.47424892603e-05  2.40722837765e-05
5.41218230583  3.36417976431  7.69377637149  m  1  1  1  v  -2.49934501961e-05  -5.18425507666e-06  -3.9190123572e-05
5.36276194663  7.76445199141  3.30396774237  m  1  1  1  v  -2.88503001617e-05  -1.29233618409e-05  3.42987239032e-05
5.34495154401  7.75944802577  7.70473813314  m  1  1  1  v  -6.06606577587e-05  1.41101308693e-06  3.926419669e-05

C #label
0 #magnetism
32 #number of atoms
8.79675252166  0.145859142482  0.0273260038298  m  1  1  1  v  5.14033805791e-05  -3.53975179349e-05  5.01615598597e-05
8.76338059378  0.13214955345  4.42098513996  m  1  1  1  v  -3.49564946104e-05  -2.72899728935e-05  -3.96639917282e-05
-0.0758253689216  4.51578932101  0.0416662782242  m  1  1  1  v  1.11855563644e-05  -5.54331374466e-05  -2.85202011965e-05
-0.109065175255  4.52921336481  4.42391159472  m  1  1  1  v  1.02670149018e-05  -1.13812066724e-05  9.17421495083e-06
4.40246960814  0.061858827085  0.00610026995858  m  1  1  1  v  -3.4564990281e-05  2.16206945678e-05  -2.69083881351e-05
4.39374471349  0.0708993717242  4.41355185343  m  1  1  1  v  -6.61145009469e-06  -2.37718539561e-05  -2.21947894974e-05
4.33872199215  4.45874145662  0.0151026869648  m  1  1  1  v  2.42805038455e-05  2.72167701778e-05  1.51302756405e-06
4.31012470119  4.43825240487  4.42456793834  m  1  1  1  v  8.7689095425e-07  2.86096704786e-05  4.79244357726e-05
-0.061100603432  2.32768354438  2.23475642113  m  1  1  1  v  -6.32455245672e-06  -2.95111270991e-05  -7.52984863861e-06
-0.0794587905441  2.32406712803  6.62079669959  m  1  1  1  v  4.28953101311e-05  1.90035897295e-05  5.74391270615e-05
-0.141614891116  6.7020683934  2.23136426612  m  1  1  1  v  5.99544140987e-06  -4.4977418739e-05  -4.45290602256e-05
-0.135188790567  6.7143379856  6.61147526574  m  1  1  1  v  -2.17049546518e-05  -7.70098582005e-05  2.80687337577e-05
4.3382152163  2.24099164243  2.20379943176  m  1  1  1  v  7.8077306335e-05  -4.91752671965e-05  1.00554887098e-05
4.34695121426  2.25777714335  6.59281907798  m  1  1  1  v  -3.2330219295e-05  9.54760314657e-06  6.06049947329e-05
4.29853693126  6.64997761578  2.22045249044  m  1  1  1  v  1.09070153235e-08  4.06399991487e-05  5.07395758176e-05
4.25906046048  6.65130871095  6.61001362978  m  1  1  1  v  1.92861628598e-05  4.80724403036e-06  9.74149433452e-07
2.19638104094  0.0293803361291  2.2164644178  m  1  1  1  v  7.28418113835e-05  7.96953246256e-07  -1.48459162896e-05
2.15645982316  0.0367894496006  6.59433337826  m  1  1  1  v  5.35786845957e-06  3.08828604155e-05  -4.98106218971e-05
2.11706535103  4.42306968917  2.20536774896  m  1  1  1  v  1.5888781866e-05  -4.7517400958e-05  4.30355136038e-05
2.11678157985  4.42379535824  6.59137303201  m  1  1  1  v  -4.84089564358e-05  -2.56876038298e-05  -4.50283348848e-05
6.58287656099  0.109132641563  2.20468062262  m  1  1  1  v  -3.26623807208e-05  9.87912378403e-06  -4.73535894507e-05
6.56493585901  0.0949578746116  6.61121681556  m  1  1  1  v  1.72878384077e-05  2.54460938929e-06  1.72216041491e-05
6.51012678882  4.47215896557  2.20963646045  m  1  1  1  v  -7.52639675946e-05  1.62555048001e-05  1.16192960044e-05
6.50073273719  4.46510907329  6.61953256279  m  1  1  1  v  -3.08144377278e-05  -2.69444770293e-05  9.29187560716e-05
2.14972765598  2.22727377764  0.00265647910094  m  1  1  1  v  1.77852848625e-05  -7.08398904615e-07  -1.82397431004e-05
2.15279733413  2.22488382204  4.40306481249  m  1  1  1  v  2.79222341792e-05  -6.29508099695e-05  3.99229741533e-05
2.11143576284  6.60833827667  0.0116203871796  m  1  1  1  v  1.61708984036e-05  -1.70515722088e-05  7.68769641182e-05
2.08262406451  6.6042611009  4.39737628944  m  1  1  1  v  -1.54466266158e-05  -4.75494084166e-06  -7.56634806296e-05
6.55282148747  2.286585932  0.0195930024303  m  1  1  1  v  1.4387864644e-05  -3.11479706246e-05  3.06544237109e-06
6.53649735203  2.28199393592  4.41639238509  m  1  1  1  v  -2.4696192286e-05  -2.63961180814e-05  6.35710686503e-05
6.50237475162  6.682518346  0.0377751819525  m  1  1  1  v  4.6622299377e-05  4.52199978439e-05  -2.14374462784e-05
6.4682306189  6.68998163364  4.41891802541  m  1  1  1  v  -4.9160368437e-05  5.45753590777e-05  5.97246082081e-05
