INPUT_PARAMETERS
basis_type lcao
calculation scf
pseudo_dir ../../PP_ORB
orbital_dir .
nspin 1
scf_thr 1e-7
gamma_only 1
ks_solver genelpa
ecutwfc 100
out_elf	1