ATOMIC_SPECIES
Si 28.085 Si_ONCV_PBE-1.0.upf upf201
C 12.011 C_ONCV_PBE-1.0.upf upf201

NUMERICAL_ORBITAL
Si_gga_9au_100Ry_3s3p2d.orb
C_gga_9au_100Ry_3s3p2d.orb

LATTICE_CONSTANT
1.88972612546

LATTICE_VECTORS
9.48222954155 0 0 #latvec1
-4.66367804523 8.05684815627 0 #latvec2
0.299068174 0.262196589534 10.358687274 #latvec3

ATOMIC_POSITIONS
Cartesian

Si #label
0 #magnetism
36 #number of atoms
0.0589114930885  1.84149192856  2.54208239276  m  1  1  1  v  2.08222112447e-05  -5.34848695057e-06  1.34555746122e-05
3.2005798208  7.23501304524  2.41416602662  m  1  1  1  v  8.80550339023e-06  -1.47003972316e-05  2.75078094137e-05
-3.05743583391  7.28797647302  2.51232789124  m  1  1  1  v  -5.13704579227e-05  1.41017324051e-05  -1.22500325592e-05
4.80069295638  6.36861994812  4.98609355991  m  1  1  1  v  5.06210832341e-05  -5.44693153308e-05  3.69179263889e-06
1.6578306695  0.960693633995  5.09735683823  m  1  1  1  v  1.45510166814e-05  3.88272604189e-05  -2.83786180457e-05
7.91161506719  0.936798157687  5.0302646941  m  1  1  1  v  3.19016495298e-07  -5.67690194237e-06  5.60940028368e-06
0.11479917236  1.92361406751  7.68419867886  m  1  1  1  v  -3.59402677604e-05  -4.7374172969e-06  -8.39284815119e-07
3.26568085424  7.30160826749  7.57754445983  m  1  1  1  v  2.41853717426e-05  2.49994627707e-05  -4.10585253683e-05
-2.97151338749  7.34826524585  7.65177381413  m  1  1  1  v  4.91735204922e-05  1.34704857126e-05  -2.21277793633e-06
4.86629871801  6.43528109925  10.1319528192  m  1  1  1  v  4.51656259477e-06  -1.56630651859e-05  2.29569199702e-05
1.7132008722  1.01727670377  10.2370226666  m  1  1  1  v  -3.60673516164e-06  4.31457733531e-05  -7.86229155721e-06
7.98150490575  0.987075648162  10.153007391  m  1  1  1  v  1.52729539727e-05  -3.04159189209e-05  -2.5113218204e-05
-1.50386555293  4.56264266275  2.53849500364  m  1  1  1  v  -6.1575338024e-06  -1.85475888336e-05  -2.91298305641e-05
1.63893121115  4.54665156773  2.48458329034  m  1  1  1  v  6.82219232602e-06  2.35216016119e-05  -9.81867343464e-06
0.0705078196055  7.25627773773  2.47132433092  m  1  1  1  v  -9.31283028812e-06  -1.4861185074e-05  -4.55236308994e-05
6.34646781747  3.65362353063  4.99905498474  m  1  1  1  v  -1.31307426207e-07  -1.28883568417e-05  3.20378699329e-05
3.20191153875  3.66255289336  5.05096171941  m  1  1  1  v  -3.57207413218e-06  5.65397935133e-05  -1.06519198904e-06
4.76448979994  0.945523267807  5.0485543751  m  1  1  1  v  -2.18821980159e-05  7.66364199516e-07  1.65814596405e-05
-1.42904580092  4.61336025631  7.65087942777  m  1  1  1  v  6.00738108406e-07  7.63174208248e-06  -2.47717324543e-05
1.67738838366  4.61735553897  7.61309226984  m  1  1  1  v  1.7587874155e-05  3.70421200359e-05  -3.70673936403e-05
0.155182198232  7.33470743441  7.61152814944  m  1  1  1  v  5.3533948387e-06  -1.94670914353e-05  -6.11241697166e-06
6.43149818659  3.73272098432  10.1264218582  m  1  1  1  v  1.8244697657e-05  2.82925424105e-05  -1.48488975351e-05
3.28865820895  3.72250580296  10.1811264751  m  1  1  1  v  -1.37193485462e-05  1.24263692237e-05  -2.94349873755e-05
4.84861627303  1.02410078093  10.1956852782  m  1  1  1  v  2.66233922009e-05  1.69441610939e-05  5.69915681345e-07
3.17034788003  1.823336908  2.50809522253  m  1  1  1  v  2.58302585565e-06  2.65374634387e-05  -4.88169442525e-06
6.30667800325  1.81381231794  2.45479606559  m  1  1  1  v  1.23301498859e-05  -6.6101623716e-06  2.91507443929e-05
4.76461423211  4.5413361341  2.4388009281  m  1  1  1  v  -7.94985273518e-07  1.85029206306e-05  -4.40263366491e-06
1.65836050638  6.37274454305  5.03028073368  m  1  1  1  v  -4.57363578911e-05  5.29439844793e-05  -2.59179792814e-05
-1.45555511651  6.39218739842  5.08810186486  m  1  1  1  v  1.28455016267e-05  -3.38609726261e-05  2.37431330036e-05
0.0961838514138  3.67849525952  5.0768055398  m  1  1  1  v  -2.49032512124e-05  -3.9395597677e-06  -4.0296572377e-05
3.24811655924  1.89921875135  7.6356397003  m  1  1  1  v  -2.88074898566e-05  -1.177375606e-05  3.40952242417e-05
6.39655415789  1.88449485325  7.59634824701  m  1  1  1  v  -6.10086977136e-05  2.73674370865e-06  3.91217072301e-05
4.82980857169  4.60706578705  7.58466419286  m  1  1  1  v  3.16797747136e-05  -2.13812044224e-05  3.20890412082e-05
1.7365642831  6.42361096871  10.1900110733  m  1  1  1  v  -2.54901981885e-05  -1.6014034434e-05  -2.73751988562e-05
-1.39455767517  6.46257259673  10.1976688273  m  1  1  1  v  5.05569824879e-06  -3.46447231809e-05  -1.99980436516e-05
0.144506586356  3.7302510555  10.2290609581  m  1  1  1  v  4.44762661357e-06  -5.48247991553e-06  4.95554440045e-06

C #label
0 #magnetism
36 #number of atoms
0.0662518593891  1.86935287822  4.46078253543  m  1  1  1  v  -3.45923957259e-05  2.31947392564e-05  -2.78639326482e-05
3.22628291542  7.2724245322  4.35568487813  m  1  1  1  v  -6.29539355816e-06  -2.27555423688e-05  -2.3092418558e-05
-3.03383116124  7.29155762182  4.45473953411  m  1  1  1  v  2.49761263203e-05  2.88595732134e-05  9.06693765834e-07
4.83081454625  6.39526998979  6.92863746841  m  1  1  1  v  1.28495588891e-06  3.02695879223e-05  4.78883536891e-05
1.665131228  0.977073501957  7.03330795194  m  1  1  1  v  -6.00497084141e-06  -2.85653333107e-05  -8.24729123228e-06
7.92554505007  0.951090574393  6.93356997444  m  1  1  1  v  4.3819650622e-05  2.05454783474e-05  5.7519950912e-05
0.124262862039  1.9478604605  9.60500484927  m  1  1  1  v  6.4663973941e-06  -4.42216575238e-05  -4.57011079404e-05
3.3205233887  7.33479173654  9.48588417835  m  1  1  1  v  -2.15743502958e-05  -7.66476759401e-05  2.7788686913e-05
-2.97445959134  7.38260492003  9.60867804457  m  1  1  1  v  7.94339240274e-05  -4.84710844697e-05  9.5541151639e-06
4.76286292485  6.33959496489  1.77041999332  m  1  1  1  v  -3.2330166362e-05  1.09733071286e-05  6.07247172409e-05
1.60273744334  0.924245075878  1.9079963027  m  1  1  1  v  4.08331703428e-07  4.2447731878e-05  5.07380830409e-05
7.86692988434  0.890820085168  1.789501801  m  1  1  1  v  1.99204204328e-05  6.17470375692e-06  3.61194500694e-07
-1.47802533799  4.58425126307  4.46638600857  m  1  1  1  v  7.41341011426e-05  2.11513898427e-06  -1.56532505777e-05
1.65686790062  4.54231200688  4.42011198758  m  1  1  1  v  5.82099065719e-06  3.25707082865e-05  -5.10475635618e-05
0.103171878495  7.28993044139  4.41025252762  m  1  1  1  v  1.64812962036e-05  -4.67928482166e-05  4.29393618875e-05
6.37934604053  3.68037850467  6.9305867762  m  1  1  1  v  -4.86064611245e-05  -2.46948308442e-05  -4.62065171308e-05
3.2470310499  3.6925451148  6.97153407613  m  1  1  1  v  -3.26664090176e-05  1.13089011225e-05  -4.85603418362e-05
4.79898129927  0.980242139587  6.99660867193  m  1  1  1  v  1.78975427945e-05  3.88426838035e-06  1.68082798518e-05
-1.42193166662  4.65752898822  9.58749440455  m  1  1  1  v  -7.5791436763e-05  1.77636280098e-05  1.11371367816e-05
1.72197097707  4.63892529219  9.54662551584  m  1  1  1  v  -3.07957605584e-05  -2.59671471023e-05  9.34355141043e-05
0.179515645683  7.33415410344  9.56049872265  m  1  1  1  v  1.84011013175e-05  5.91290742065e-07  -1.9088776954e-05
6.31498156792  3.62352952206  1.79113568964  m  1  1  1  v  2.86626021822e-05  -6.24158857762e-05  3.97885790174e-05
3.1836780312  3.64052090777  1.8413903054  m  1  1  1  v  1.67668790751e-05  -1.5952689281e-05  7.71966184706e-05
4.73020692165  0.905130841878  1.86665160221  m  1  1  1  v  -1.52391268922e-05  -3.50497059733e-06  -7.72180734408e-05
3.19649030343  1.8461174978  4.4242288919  m  1  1  1  v  1.49619373817e-05  -3.02222885472e-05  2.47818291774e-06
6.31999170969  1.8155422982  4.3927363586  m  1  1  1  v  -2.4602340928e-05  -2.54120505301e-05  6.37272349724e-05
4.78592551926  4.5486320834  4.38016738511  m  1  1  1  v  4.75924329625e-05  4.70840044982e-05  -2.23257699486e-05
1.67761752974  6.40320079881  6.93900366191  m  1  1  1  v  -4.93671056398e-05  5.65543139957e-05  5.98335135065e-05
-1.44085359779  6.42664582663  7.00919615175  m  1  1  1  v  3.89978628582e-05  -3.1159385664e-05  2.32768776533e-05
0.119359728724  3.69609360071  7.03166091716  m  1  1  1  v  -3.89061135847e-05  2.41624980458e-05  7.0394117947e-06
3.27019567111  1.91429236933  9.57433431844  m  1  1  1  v  2.3461407892e-05  -4.56840597088e-05  6.14269478324e-07
6.4143738271  1.89877427726  9.51598244494  m  1  1  1  v  -4.13939429452e-05  -1.0535026747e-05  1.99978088189e-05
4.84133451598  4.61646413872  9.51231204923  m  1  1  1  v  3.34761223275e-06  -2.0306499026e-05  -3.42453865083e-05
1.64322503625  6.34559369875  1.83314766002  m  1  1  1  v  -1.90023527478e-05  6.25243107546e-05  6.97428300338e-05
-1.51760918399  6.35553645923  1.86146485272  m  1  1  1  v  3.04790471808e-05  -4.47570255169e-05  3.52521851059e-05
0.0510154765491  3.6574635778  1.87600194472  m  1  1  1  v  -3.61640007638e-05  -1.8604412712e-05  -4.22262413575e-05
