ATOMIC_SPECIES
Si 28.085 Si_ONCV_PBE-1.0.upf
C 12.011 C_ONCV_PBE-1.0.upf

LATTICE_CONSTANT
1.8897261254578281

LATTICE_VECTORS
8.968017475954776 0.0 0.0 
0.0994430403272062 8.951629000214398 0.0 
-0.24305576209065394 -0.21745763956713632 8.639998833224105 

ATOMIC_POSITIONS
Cartesian    # Cartesian(Unit is LATTICE_CONSTANT)
Si
0.0
32
3.254882658890 1.034500637713 3.343752351110 1 1 1
3.195461438905 0.996302796859 7.739758078468 1 1 1
3.274462987081 5.420340243566 3.407404242963 1 1 1
3.219487503727 5.374580224602 7.803784878333 1 1 1
7.644117409525 1.011594543222 3.413557642263 1 1 1
7.584110606316 0.961048449670 7.803132170336 1 1 1
7.666745845525 5.411678739898 3.473824771033 1 1 1
7.605429312452 5.342195423892 7.846437365786 1 1 1
3.300651577387 3.261958998860 1.195471805292 1 1 1
3.231091760888 3.211300791067 5.581440381829 1 1 1
3.328679108318 7.653309503624 1.239793970122 1 1 1
3.265985354888 7.595425351595 5.619256674083 1 1 1
7.692375970802 3.238771487740 1.230189528208 1 1 1
7.629766812892 3.179957360409 5.633514891949 1 1 1
7.705070559648 7.637886665796 1.305106466540 1 1 1
7.654530810097 7.574064714367 5.693194909926 1 1 1
1.099731478247 1.080378115054 1.119511913825 1 1 1
1.035300875262 1.022063352335 5.522618807491 1 1 1
1.125980199513 5.472591266934 1.178997937897 1 1 1
1.047281303032 5.412336147979 5.571741991908 1 1 1
5.476230931663 1.050676994221 1.186051918018 1 1 1
5.423820570715 1.002438551940 5.579944558276 1 1 1
5.499069096406 5.450834652680 1.235746623090 1 1 1
5.459650891711 5.403651790208 5.629194907088 1 1 1
1.067759597274 3.246909031987 3.351669061144 1 1 1
1.008972879421 3.197707405378 7.748128085686 1 1 1
1.096269111696 7.634860795813 3.401961113822 1 1 1
1.038566107406 7.575517841074 7.801458499196 1 1 1
5.458132676467 3.216193757166 3.406116922394 1 1 1
5.401140287849 3.161786011969 7.800507641733 1 1 1
5.487084415443 7.616186748332 3.462818870766 1 1 1
5.426311939425 7.557177118248 7.847722951313 1 1 1
C
0.0
32
8.788141270323 -0.038118879948 0.121548957803 1 1 1
8.718192543587 -0.102818801584 4.507829315752 1 1 1
8.813773832192 4.341219163741 0.187223253407 1 1 1
8.740056976792 4.284460565282 4.568175110653 1 1 1
4.396432426931 -0.030062198056 0.054707675999 1 1 1
4.335765784000 -0.076597189476 4.448696083909 1 1 1
4.423587934487 4.370411459195 0.114484148537 1 1 1
4.353520270945 4.300938430653 4.511927407527 1 1 1
8.763417135230 2.111499423302 2.346073150836 1 1 1
8.700687352739 2.066375005741 6.722430467228 1 1 1
8.785887028338 6.511072262435 2.400273639409 1 1 1
8.732692067342 6.450604883746 6.784010384694 1 1 1
4.371549738221 2.137645836423 2.284364050617 1 1 1
4.321375374956 2.095796503513 6.671331801376 1 1 1
4.405293152527 6.526168592478 2.352689507182 1 1 1
4.332772482889 6.482739248145 6.733075151759 1 1 1
2.163054428182 -0.035008611023 2.231673635740 1 1 1
2.093233396331 -0.085160272547 6.626369319172 1 1 1
2.184588139502 4.345050513639 2.284760930008 1 1 1
2.139418638522 4.300360240767 6.671950391295 1 1 1
6.557050692014 -0.060984987610 2.283499520226 1 1 1
6.498717596302 -0.120218422294 6.682129979180 1 1 1
6.573731212750 4.326241530448 2.335955379784 1 1 1
6.529029407528 4.269314862903 6.735315819133 1 1 1
2.200797625490 2.179093938648 0.057566074480 1 1 1
2.153647029212 2.130592071851 4.451904542651 1 1 1
2.239421936105 6.569063558752 0.118384327690 1 1 1
2.172729568680 6.511362655665 4.501900475528 1 1 1
6.605960818862 2.154347739977 0.116898166484 1 1 1
6.534760722450 2.100974674768 4.513232810174 1 1 1
6.629877690938 6.545532227985 0.176031492744 1 1 1
6.558784710787 6.496300693903 4.573201242892 1 1 1

NUMERICAL_ORBITAL
Si_gga_9au_100Ry_3s3p2d.orb
C_gga_9au_100Ry_3s3p2d.orb
