ATOMIC_SPECIES
Al 26.98 Al_ONCV_PBE-1.0.upf

LATTICE_CONSTANT
7.6513590200098225  // add lattice constant

LATTICE_VECTORS
0.000000000000    0.500000000000    0.500000000000    
0.500000000000    0.000000000000    0.500000000000    
0.500000000000    0.500000000000    0.000000000000    

ATOMIC_POSITIONS
Direct

Al
0
1
    0.000000000000    0.000000000000    0.000000000000 1 1 1