ATOMIC_SPECIES
Ga 69.723 ./Ga_ONCV_PBE-1.0.upf
As 74.922 ./As_ONCV_PBE-1.0.upf

NUMERICAL_ORBITAL
./Ga_gga_9au_100Ry_2s2p2d.orb
./As_gga_8au_100Ry_2s2p1d.orb

LATTICE_CONSTANT
1.889716

LATTICE_VECTORS
    5.75018     0.00000     0.00000
    0.00000     5.75018     0.00000
    0.00000     0.00000     5.75018

ATOMIC_POSITIONS
Direct

Ga
0.0
4
  0.0000000   0.0000000   0.0000000 1 1 1
  0.0000000   0.5000000   0.5000000 1 1 1
  0.5000000   0.0000000   0.5000000 1 1 1
  0.5000000   0.5000000   0.0000000 1 1 1

As
0.0
4
  0.2500000   0.2500000   0.2500000 1 1 1
  0.2500000   0.7500000   0.7500000 1 1 1
  0.7500000   0.2500000   0.7500000 1 1 1
  0.7500000   0.7500000   0.2500000 1 1 1

