ATOMIC_SPECIES
O 1.00 ../../../psp_orb/O_ONCV_PBE-1.0.upf
H 1.00 ../../../psp_orb/H_ONCV_PBE-1.0.upf

LATTICE_CONSTANT
1

LATTICE_VECTORS
28.0 0.0 0.0 
0.0 28.0 0.0 
0.0 0.0 28.0 

ATOMIC_POSITIONS
Cartesian

O
0.0
1
18.949971819200 14.638185929600 6.508546733770 0 0 0
H
0.0
2
17.987588408200 16.175782975400 6.447655067730 0 0 0
19.766900187300 14.591432290800 4.880108929750 0 0 0

NUMERICAL_ORBITAL
../../../psp_orb/O_gga_7au_100Ry_2s2p1d.orb
../../../psp_orb/H_gga_6au_100Ry_2s1p.orb

NUMERICAL_DESCRIPTOR
../../../psp_orb/jle.orb
