ATOMIC_SPECIES
Si 28.085 Si_ONCV_PBE-1.0.upf
C 12.011 C_ONCV_PBE-1.0.upf

LATTICE_CONSTANT
1.8897261254578281

LATTICE_VECTORS
8.889884654685734 0.0 0.0 
0.24549739032525406 8.736557054925099 0.0 
0.10329257217849311 -0.09785930637219442 8.891031173465146 

ATOMIC_POSITIONS
Cartesian    # Cartesian(Unit is LATTICE_CONSTANT)
Si
0.0
32
3.363721444963 1.054040348815 3.321892028702 1 1 1
3.379822407048 1.021650098744 7.755523152049 1 1 1
3.419910700998 5.479477619816 3.343328395630 1 1 1
3.433473511239 5.455034706792 7.765167785358 1 1 1
7.803745591689 0.990330878075 3.284382427637 1 1 1
7.825385816674 0.954042172520 7.713956490812 1 1 1
7.855079169082 5.412988356134 3.312533109943 1 1 1
7.877191960292 5.389793228721 7.746496395941 1 1 1
3.386448057066 3.275303617363 1.108511710129 1 1 1
3.395903477536 3.269048782519 5.537078226996 1 1 1
3.436429777357 7.707108799067 1.121990572399 1 1 1
3.466583081643 7.682254571608 5.577599754979 1 1 1
7.813422132280 3.223176516778 1.076041576974 1 1 1
7.845325602681 3.180560100672 5.518656736606 1 1 1
7.879678360007 7.645433543319 1.108586244584 1 1 1
7.899560962191 7.620447113757 5.542482453138 1 1 1
1.124662011446 1.092059684495 1.110135477589 1 1 1
1.156183079672 1.067606072719 5.538654338651 1 1 1
1.199581196899 5.516231062840 1.133488956322 1 1 1
1.223985173139 5.483671543182 5.557344076997 1 1 1
5.575688879161 1.022750033262 1.085390119328 1 1 1
5.582471487166 1.004627631439 5.515801072499 1 1 1
5.625999321795 5.447083736274 1.109531599294 1 1 1
5.663737796841 5.433248704642 5.550178447190 1 1 1
1.178091724179 3.289063968915 3.334815795897 1 1 1
1.195662327999 3.256855007509 7.784431117959 1 1 1
1.237061966127 7.731548082553 3.352646389186 1 1 1
1.259300704194 7.706259798692 7.801818812488 1 1 1
5.603026350932 3.226187658050 3.306226641590 1 1 1
5.642217306671 3.201930634278 7.738722030669 1 1 1
5.660696672595 7.658317742108 3.328953373440 1 1 1
5.695747451897 7.643186973276 7.779632793911 1 1 1
C
0.0
32
8.867635987960 -0.132451262084 -0.050163218482 1 1 1
8.895973025021 -0.139551518298 4.384248569275 1 1 1
8.930024582464 4.320486962375 -0.024713275681 1 1 1
8.967478564439 4.293895493501 4.407744271929 1 1 1
4.441592793370 -0.060763755230 -0.021644084298 1 1 1
4.456827205646 -0.088096390431 4.409092114247 1 1 1
4.495658032160 4.380948584442 0.003175024558 1 1 1
4.521289487756 4.350313111499 4.432429920253 1 1 1
8.913216395561 2.092723965441 2.168108788496 1 1 1
8.929519942935 2.056480554908 6.620580943267 1 1 1
8.986372407069 6.510564436343 2.209411457245 1 1 1
9.001353519418 6.505785648341 6.632987162289 1 1 1
4.483304362247 2.143941098240 2.196973205014 1 1 1
4.504261487131 2.119519648724 6.643498726776 1 1 1
4.540384319432 6.577379959818 2.231635263005 1 1 1
4.557920145265 6.552985512012 6.660036444712 1 1 1
2.225239477472 -0.043048817347 2.210826385066 1 1 1
2.252998860255 -0.055164704639 6.638154297606 1 1 1
2.296973667870 4.390270510894 2.239734289044 1 1 1
2.318783780551 4.375977439018 6.662878050229 1 1 1
6.661810296190 -0.106010007163 2.185164425813 1 1 1
6.692276438131 -0.112435374553 6.602958909412 1 1 1
6.739982804202 4.320676150565 2.202491302672 1 1 1
6.747514341767 4.307482358193 6.637683855151 1 1 1
2.243175151444 2.179293805671 0.001188668759 1 1 1
2.279315466244 2.162831008431 4.428723554266 1 1 1
2.312520609512 6.617978029496 0.015615475661 1 1 1
2.332215161702 6.586766113060 4.470858379760 1 1 1
6.685072142094 2.135775725189 -0.019856840257 1 1 1
6.711820853022 2.097341334721 4.412005835219 1 1 1
6.744509863743 6.565788235085 0.004558409749 1 1 1
6.767637206084 6.534352843679 4.432941363107 1 1 1

NUMERICAL_ORBITAL
Si_gga_9au_100Ry_3s3p2d.orb
C_gga_9au_100Ry_3s3p2d.orb
