ATOMIC_SPECIES
Si 28.085 Si_ONCV_PBE-1.0.upf upf201
C 12.011 C_ONCV_PBE-1.0.upf upf201

NUMERICAL_ORBITAL
Si_gga_9au_100Ry_3s3p2d.orb
C_gga_9au_100Ry_3s3p2d.orb

LATTICE_CONSTANT
1.88972612546

LATTICE_VECTORS
9.20716292578 1.85740280997e-10 4.95754584232e-15 #latvec1
-4.60358146273 7.97363701596 1.47248063138e-12 #latvec2
5.42890722156e-15 1.86721049084e-12 10.0724473318 #latvec3

ATOMIC_POSITIONS
Cartesian

Si #label
0 #magnetism
36 #number of atoms
0.00209589397112  1.78596237479  2.51574500139  m  1  1  1  v  9.2557093069e-05  0.000267652933292  -0.000168363874136
3.07993863107  7.08379479605  2.51365183056  m  1  1  1  v  0.000261503358279  0.000131907964117  -0.000254639940748
-3.07689710273  7.07980916286  2.51097953704  m  1  1  1  v  0.00015799198778  -3.00626311547e-06  0.000131243216544
4.5903486976  6.19526726354  5.03388741083  m  1  1  1  v  -7.85545248419e-05  7.85133756256e-06  -1.94588170223e-05
1.52291998075  0.893256181207  5.03502294809  m  1  1  1  v  -5.74695167745e-05  -1.72613997379e-05  0.000101647563903
7.66270626323  0.90459300011  5.04179620788  m  1  1  1  v  -0.000103270556771  2.82605510755e-05  2.71189279007e-05
-0.00665100084258  1.76814925029  7.55622832925  m  1  1  1  v  0.000264886275624  -2.80003260149e-05  7.98634170853e-05
3.05840143458  7.09556742467  7.54592280593  m  1  1  1  v  -5.7090581349e-05  -0.000290455665264  -3.85025252172e-05
-3.06985560554  7.09744723578  7.56359628921  m  1  1  1  v  -0.000107217977845  0.000143320431295  0.000239378548395
4.58539977528  6.20634555842  0.00683803366005  m  1  1  1  v  -0.000199464464896  -0.00015679663522  0.000103557524722
1.51839869477  0.883561541486  10.0697744167  m  1  1  1  v  -6.82424254555e-05  0.00027073480547  5.43838227579e-05
7.68285211181  0.889830485294  10.0642828144  m  1  1  1  v  7.63786415087e-05  0.000200350647074  -0.000136467395465
-1.54813410637  4.42817120713  2.52686398602  m  1  1  1  v  0.000167047099083  2.59368498597e-05  0.00017329238373
1.53786233972  4.4382331744  2.51991152341  m  1  1  1  v  -3.97477178192e-05  -6.21704134181e-05  0.000163339317933
-0.00839332549609  7.08522373763  2.49513564929  m  1  1  1  v  -5.82030576063e-05  0.000206744339032  0.000170496029183
6.14091932266  3.5370403119  5.03985284767  m  1  1  1  v  4.70561859014e-05  -0.000223944807273  -0.000129300749508
3.0670213561  3.5388884148  5.026732975  m  1  1  1  v  -0.000238377856345  5.30169349479e-05  -0.000154235667705
4.59509081582  0.887501298873  5.04376122952  m  1  1  1  v  -0.000160796166505  -2.67000701565e-05  -0.000121646103189
-1.54679261405  4.43817657706  7.56265335549  m  1  1  1  v  -0.000186319811447  0.000192246153902  2.19620619078e-05
1.54354358283  4.43848744495  7.55395915621  m  1  1  1  v  5.58707487634e-05  -2.67569022456e-05  0.000194834949831
0.000807482525245  7.10790340501  7.55519020161  m  1  1  1  v  0.000159614113589  0.000224591163371  0.000138039284312
6.13159445422  3.53737080278  10.0671699506  m  1  1  1  v  -0.000115027169671  -1.03788735359e-05  1.91126814915e-05
3.07619551099  3.53960177267  0.00832734541888  m  1  1  1  v  6.32224024732e-05  -0.000170633801111  3.36917675494e-05
4.6132137584  0.892910377376  10.0668327089  m  1  1  1  v  -8.98798564437e-05  0.000109631225568  -6.3803850463e-06
3.06825169673  1.78609412866  2.52414276817  m  1  1  1  v  9.59279580854e-05  -0.00028106756448  0.000202673965653
6.12380936809  1.7795719982  2.52280297779  m  1  1  1  v  0.000254734860229  0.000102126357913  -2.63875667825e-05
4.5947546648  4.43604165307  2.51439950986  m  1  1  1  v  0.000134117348318  0.000184257097363  2.56358050985e-05
1.54595326147  6.20754689123  5.02816974778  m  1  1  1  v  -4.1727336485e-05  3.28974611124e-05  -3.52772243736e-06
-1.53419610558  6.19988552057  5.03647059623  m  1  1  1  v  0.000177221907844  0.000166209317743  -0.000143603018895
0.00922253790998  3.5474721427  5.03055888293  m  1  1  1  v  -0.000128709026833  0.000218149870104  -0.000157958347883
3.05564125612  1.76663416794  7.55525948888  m  1  1  1  v  -0.000248929314306  5.02536455573e-05  7.75974410605e-05
6.13990937994  1.78329591861  7.54889231219  m  1  1  1  v  0.000209896873522  -6.13654766449e-05  6.11338744456e-05
4.60584005259  4.43553281743  7.55319925457  m  1  1  1  v  -0.000103604974939  -1.90652659931e-06  0.000215287884156
1.54165106224  6.19483384351  10.0663255694  m  1  1  1  v  -5.09313733416e-05  -7.54793867278e-05  4.39797249442e-06
-1.54076353181  6.20453713579  10.0653150821  m  1  1  1  v  -5.09299830162e-05  2.54369653447e-06  6.10489002694e-05
0.00841634199316  3.543964501  10.0654851062  m  1  1  1  v  0.000142352768512  -6.91290495292e-05  -0.000170566290957

C #label
0 #magnetism
36 #number of atoms
-0.017377854638  1.78457659642  4.41548890633  m  1  1  1  v  0.000213076278747  7.2983441199e-05  1.56956589918e-05
3.05567003943  7.06718085619  4.38082957511  m  1  1  1  v  0.000245305175902  5.96736507881e-05  -0.000406980836148
-3.07811440585  7.10473256719  4.41238516434  m  1  1  1  v  -0.000283130446318  0.000291287690721  0.000317273417018
4.62888771722  6.1921693242  6.91059120804  m  1  1  1  v  -2.74220772805e-05  -0.000374708419225  0.000166962695751
1.53360584999  0.89398569805  6.91636056213  m  1  1  1  v  -0.000244337061841  -0.000281440920486  -0.00026541234855
7.67818864098  0.884183510374  6.90217645253  m  1  1  1  v  -0.000134156420402  -0.000446335808306  0.000152411924182
-0.0272396356892  1.7562517565  9.45162458496  m  1  1  1  v  1.04091759024e-05  -8.67477130914e-05  0.000131218184904
3.067394454  7.08832690338  9.42964561551  m  1  1  1  v  -0.000181902649484  0.000328437348429  2.32224209085e-05
-3.06166487001  7.09657986003  9.45334968489  m  1  1  1  v  0.000310488636938  0.000226949740035  3.38808339505e-05
4.61619569783  6.18331852656  1.89013819577  m  1  1  1  v  -0.000109913287429  -2.5012270686e-05  0.000427387420907
1.53268394838  0.895502607423  1.89797232571  m  1  1  1  v  0.000151689927658  0.000140608979335  1.68535787426e-06
7.66608949186  0.899095248133  1.90504945665  m  1  1  1  v  0.00018242121942  -0.000135120905041  3.7652229012e-05
-1.55879324407  4.4132430717  4.40116682155  m  1  1  1  v  -0.000238522229281  -0.000388064796695  -0.000136018392793
1.51896822107  4.46013582934  4.3793263887  m  1  1  1  v  -0.00042748934265  7.57861558422e-05  -1.15003306905e-05
-0.00313867517241  7.096514474  4.42136662779  m  1  1  1  v  0.000210029902363  -0.000136873695046  -0.00033282703553
6.13940575782  3.57116482017  6.93142652637  m  1  1  1  v  -7.7815209565e-05  0.000227534080644  -0.000276078882396
3.05746950212  3.52326440435  6.9183237783  m  1  1  1  v  7.81583412013e-05  -0.000249532071226  0.000132825347959
4.6004015644  0.889848016667  6.90426612624  m  1  1  1  v  0.000200133546059  5.79875636375e-05  -2.17710591807e-05
-1.55985903654  4.4149278177  9.44758115129  m  1  1  1  v  -0.000270212748584  -0.00011664770158  -0.00031800589438
1.53466267241  4.446262277  9.43224415609  m  1  1  1  v  0.000253145507966  0.000261766694003  0.000153462566295
0.000955648153972  7.07358525119  9.46007627305  m  1  1  1  v  0.000176510697781  -5.5522920701e-05  0.0002900760941
6.14453734032  3.55258327724  1.88436096838  m  1  1  1  v  0.000175872179889  8.82585173774e-05  -0.000324188727446
3.08144913325  3.53875860507  1.8742905499  m  1  1  1  v  0.000223741300293  -0.000147906287298  -0.000209170802199
4.61893221887  0.881917769389  1.90323863143  m  1  1  1  v  5.52246361522e-05  -9.21137133297e-05  -0.000132462769748
3.07631728386  1.78934211416  4.40635071701  m  1  1  1  v  2.30327281164e-05  9.38055640287e-05  -0.000252025263574
6.15344737069  1.7629475058  4.39757344886  m  1  1  1  v  0.000191693012115  4.61952677529e-05  2.13794128284e-05
4.62038231918  4.44845936125  4.39352671997  m  1  1  1  v  -6.23754985005e-05  7.16510134437e-05  -0.000257371427297
1.54660143068  6.1938551574  6.95472880996  m  1  1  1  v  6.47282028428e-05  -0.000198933752927  0.00025462033348
-1.5399702275  6.21204064532  6.93792040097  m  1  1  1  v  3.96909099826e-05  -3.94157612296e-06  0.000162017488327
0.00897645715316  3.55033830307  6.92655215677  m  1  1  1  v  0.000209091442847  -0.000256331839379  -5.10099360437e-05
3.05617552194  1.78228175776  9.43979134075  m  1  1  1  v  -0.000133249132703  -9.8757346205e-05  -0.000128594283433
6.14433784799  1.75150815559  9.43341902461  m  1  1  1  v  0.000149002081318  -0.000382441632838  -2.69946937645e-05
4.6057501779  4.42854831663  9.44509488646  m  1  1  1  v  -0.000172840984504  -0.000166928749436  0.000314774719122
1.54043999623  6.18896503601  1.89163808074  m  1  1  1  v  0.000110909218744  -7.27026250256e-05  0.000202229828663
-1.53137598761  6.17236812736  1.91419055606  m  1  1  1  v  -2.34124812407e-05  -3.3118652559e-05  0.00029857619127
0.0018390876034  3.55086085469  1.87164799855  m  1  1  1  v  -0.000259827525701  0.000164844794839  -0.000126074118374
