ATOMIC_SPECIES
Si 28.085 Si_ONCV_PBE-1.0.upf upf201
C 12.011 C_ONCV_PBE-1.0.upf upf201

NUMERICAL_ORBITAL
Si_gga_9au_100Ry_3s3p2d.orb
C_gga_9au_100Ry_3s3p2d.orb

LATTICE_CONSTANT
1.88972612546

LATTICE_VECTORS
9.29231915413 0 0 #latvec1
-4.75921295293 8.28659453962 0 #latvec2
0.303596492803 0.0493968083236 10.4736484697 #latvec3

ATOMIC_POSITIONS
Cartesian

Si #label
0 #magnetism
36 #number of atoms
0.0240149998404  1.8186800561  2.55740210238  m  1  1  1  v  2.08222112447e-05  -5.34848695057e-06  1.34555746122e-05
3.11657351885  7.25043337333  2.50354654053  m  1  1  1  v  8.80550339023e-06  -1.47003972316e-05  2.75078094137e-05
-3.14085752222  7.21051364553  2.58728606331  m  1  1  1  v  -5.13704579227e-05  1.41017324051e-05  -1.22500325592e-05
4.72085212206  6.37052938152  5.0500482048  m  1  1  1  v  5.06210832341e-05  -5.44693153308e-05  3.69179263889e-06
1.6390355552  0.923549017397  5.10442922453  m  1  1  1  v  1.45510166814e-05  3.88272604189e-05  -2.83786180457e-05
7.90863148248  0.975156743423  5.03143606237  m  1  1  1  v  3.19016495298e-07  -5.67690194237e-06  5.60940028368e-06
0.0932944948174  1.83427335706  7.70515699534  m  1  1  1  v  -3.59402677604e-05  -4.7374172969e-06  -8.39284815119e-07
3.19864453422  7.26749611065  7.64918414033  m  1  1  1  v  2.41853717426e-05  2.49994627707e-05  -4.10585253683e-05
-3.05669837459  7.23282431874  7.73582071105  m  1  1  1  v  4.91735204922e-05  1.34704857126e-05  -2.21277793633e-06
4.80515968091  6.37992851105  10.2008644368  m  1  1  1  v  4.51656259477e-06  -1.56630651859e-05  2.29569199702e-05
1.71024964953  0.940333410242  10.2468350761  m  1  1  1  v  -3.60673516164e-06  4.31457733531e-05  -7.86229155721e-06
7.97747136739  0.977513409891  10.1582955624  m  1  1  1  v  1.52729539727e-05  -3.04159189209e-05  -2.5113218204e-05
-1.54796866821  4.52301807623  2.58600176908  m  1  1  1  v  -6.1575338024e-06  -1.85475888336e-05  -2.91298305641e-05
1.5809804229  4.54365833504  2.53421037428  m  1  1  1  v  6.82219232602e-06  2.35216016119e-05  -9.81867343464e-06
-0.0122206885209  7.2361368623  2.54809782742  m  1  1  1  v  -9.31283028812e-06  -1.4861185074e-05  -4.55236308994e-05
6.31006643106  3.67038333823  5.03162400932  m  1  1  1  v  -1.31307426207e-07  -1.28883568417e-05  3.20378699329e-05
3.16467761257  3.64773502507  5.08735059941  m  1  1  1  v  -3.57207413218e-06  5.65397935133e-05  -1.06519198904e-06
4.75432872947  0.943342682831  5.06717570868  m  1  1  1  v  -2.18821980159e-05  7.66364199516e-07  1.65814596405e-05
-1.48624825993  4.5187518357  7.70623627444  m  1  1  1  v  6.00738108406e-07  7.63174208248e-06  -2.47717324543e-05
1.63115050132  4.55211966487  7.66779698797  m  1  1  1  v  1.7587874155e-05  3.70421200359e-05  -3.70673936403e-05
0.0673260929509  7.24827361174  7.68561934252  m  1  1  1  v  5.3533948387e-06  -1.94670914353e-05  -6.11241697166e-06
6.39661756172  3.68517764525  10.1653978145  m  1  1  1  v  1.8244697657e-05  2.82925424105e-05  -1.48488975351e-05
3.25950344471  3.65648510637  10.2220750025  m  1  1  1  v  -1.37193485462e-05  1.24263692237e-05  -2.94349873755e-05
4.83618117516  0.967340790324  10.1995259508  m  1  1  1  v  2.66233922009e-05  1.69441610939e-05  5.69915681345e-07
3.13950719707  1.83622619404  2.51549390879  m  1  1  1  v  2.58302585565e-06  2.65374634387e-05  -4.88169442525e-06
6.28855287293  1.85481922802  2.4774767598  m  1  1  1  v  1.23301498859e-05  -6.6101623716e-06  2.91507443929e-05
4.70727204402  4.55466699282  2.48232080588  m  1  1  1  v  -7.94985273518e-07  1.85029206306e-05  -4.40263366491e-06
1.5909225251  6.34513664846  5.09522385971  m  1  1  1  v  -4.57363578911e-05  5.29439844793e-05  -2.59179792814e-05
-1.52378001368  6.32534966322  5.15470202457  m  1  1  1  v  1.28455016267e-05  -3.38609726261e-05  2.37431330036e-05
0.0496797319754  3.63289798466  5.11699251988  m  1  1  1  v  -2.49032512124e-05  -3.9395597677e-06  -4.0296572377e-05
3.23596495762  1.84723165821  7.65803130184  m  1  1  1  v  -2.88074898566e-05  -1.177375606e-05  3.40952242417e-05
6.37030383139  1.88120622929  7.61604423499  m  1  1  1  v  -6.10086977136e-05  2.73674370865e-06  3.91217072301e-05
4.7856068101  4.56843918036  7.63690442214  m  1  1  1  v  3.16797747136e-05  -2.13812044224e-05  3.20890412082e-05
1.66902684317  6.3466471863  10.2460645376  m  1  1  1  v  -2.54901981885e-05  -1.6014034434e-05  -2.73751988562e-05
-1.46241067293  6.33303461821  10.2757924686  m  1  1  1  v  5.05569824879e-06  -3.46447231809e-05  -1.99980436516e-05
0.114985590716  3.62476482045  10.2592158035  m  1  1  1  v  4.44762661357e-06  -5.48247991553e-06  4.95554440045e-06

C #label
0 #magnetism
36 #number of atoms
0.0530122619188  1.82296285742  4.48876805536  m  1  1  1  v  -3.45923957259e-05  2.31947392564e-05  -2.78639326482e-05
3.15505836335  7.26109806409  4.43204582497  m  1  1  1  v  -6.29539355816e-06  -2.27555423688e-05  -2.3092418558e-05
-3.11013521252  7.21525233868  4.53489604816  m  1  1  1  v  2.49761263203e-05  2.88595732134e-05  9.06693765834e-07
4.75632513163  6.36471400886  6.9860725504  m  1  1  1  v  1.28495588891e-06  3.02695879223e-05  4.78883536891e-05
1.66014602533  0.936304895913  7.04180945864  m  1  1  1  v  -6.00497084141e-06  -2.85653333107e-05  -8.24729123228e-06
7.92610124458  0.968040915757  6.95196165954  m  1  1  1  v  4.3819650622e-05  2.05454783474e-05  5.7519950912e-05
0.124933514559  1.83637664851  9.62142773168  m  1  1  1  v  6.4663973941e-06  -4.42216575238e-05  -4.57011079404e-05
3.22800471843  7.28468837536  9.56654074247  m  1  1  1  v  -2.15743502958e-05  -7.66476759401e-05  2.7788686913e-05
-3.04354403423  7.23251677504  9.67279808215  m  1  1  1  v  7.94339240274e-05  -4.84710844697e-05  9.5541151639e-06
4.68505286388  6.36867720127  1.84905856602  m  1  1  1  v  -3.2330166362e-05  1.09733071286e-05  6.07247172409e-05
1.59207218385  0.916102572271  1.90570253753  m  1  1  1  v  4.08331703428e-07  4.2447731878e-05  5.07380830409e-05
7.85345690957  0.975447366208  1.80906427209  m  1  1  1  v  1.99204204328e-05  6.17470375692e-06  3.61194500694e-07
-1.53681913937  4.51979350497  4.50445531671  m  1  1  1  v  7.41341011426e-05  2.11513898427e-06  -1.56532505777e-05
1.59592788291  4.5271676634  4.45998520076  m  1  1  1  v  5.82099065719e-06  3.25707082865e-05  -5.10475635618e-05
0.0205490660493  7.23291340632  4.4845468224  m  1  1  1  v  1.64812962036e-05  -4.67928482166e-05  4.29393618875e-05
6.33855429304  3.67496257629  6.97112088997  m  1  1  1  v  -4.86064611245e-05  -2.46948308442e-05  -4.62065171308e-05
3.2030111833  3.64506596646  7.0081617027  m  1  1  1  v  -3.26664090176e-05  1.13089011225e-05  -4.85603418362e-05
4.78502382384  0.957978205296  6.99965075599  m  1  1  1  v  1.78975427945e-05  3.88426838035e-06  1.68082798518e-05
-1.45515832538  4.5297899572  9.63365857575  m  1  1  1  v  -7.5791436763e-05  1.77636280098e-05  1.11371367816e-05
1.67574424105  4.55427304245  9.59859068354  m  1  1  1  v  -3.07957605584e-05  -2.59671471023e-05  9.34355141043e-05
0.0898903307531  7.24727275899  9.62354273912  m  1  1  1  v  1.84011013175e-05  5.91290742065e-07  -1.9088776954e-05
6.26769996053  3.66326555452  1.8268361025  m  1  1  1  v  2.86626021822e-05  -6.24158857762e-05  3.97885790174e-05
3.13391130743  3.64432122934  1.86680881845  m  1  1  1  v  1.67668790751e-05  -1.5952689281e-05  7.71966184706e-05
4.71327588351  0.936337591731  1.8687755148  m  1  1  1  v  -1.52391268922e-05  -3.50497059733e-06  -7.72180734408e-05
3.19189065798  1.83503501044  4.45570110379  m  1  1  1  v  1.49619373817e-05  -3.02222885472e-05  2.47818291774e-06
6.30714250154  1.85643060084  4.39849328856  m  1  1  1  v  -2.4602340928e-05  -2.54120505301e-05  6.37272349724e-05
4.73446215602  4.56488124054  4.42254481745  m  1  1  1  v  4.75924329625e-05  4.70840044982e-05  -2.23257699486e-05
1.62095212998  6.34768065454  7.01053259047  m  1  1  1  v  -4.93671056398e-05  5.65543139957e-05  5.98335135065e-05
-1.52145973949  6.34026535403  7.07271828723  m  1  1  1  v  3.89978628582e-05  -3.1159385664e-05  2.32768776533e-05
0.0769178425943  3.62626619277  7.06120075283  m  1  1  1  v  -3.89061135847e-05  2.41624980458e-05  7.0394117947e-06
3.25273047645  1.85443099633  9.5847121915  m  1  1  1  v  2.3461407892e-05  -4.56840597088e-05  6.14269478324e-07
6.39390927766  1.86837908554  9.5395388965  m  1  1  1  v  -4.13939429452e-05  -1.0535026747e-05  1.99978088189e-05
4.79974517979  4.57297576606  9.55802079617  m  1  1  1  v  3.34761223275e-06  -2.0306499026e-05  -3.42453865083e-05
1.5668686107  6.35395779495  1.90282362685  m  1  1  1  v  -1.90023527478e-05  6.25243107546e-05  6.97428300338e-05
-1.57110586267  6.31742553629  1.92294874379  m  1  1  1  v  3.04790471808e-05  -4.47570255169e-05  3.52521851059e-05
0.00685151938029  3.62183561022  1.9169897453  m  1  1  1  v  -3.61640007638e-05  -1.8604412712e-05  -4.22262413575e-05
