ATOMIC_SPECIES
Si 28.085 Si_ONCV_PBE-1.0.upf upf201
C 12.011 C_ONCV_PBE-1.0.upf upf201

NUMERICAL_ORBITAL
Si_gga_9au_100Ry_3s3p2d.orb
C_gga_9au_100Ry_3s3p2d.orb

LATTICE_CONSTANT
1.88972612546

LATTICE_VECTORS
9.29231915413 0 0 #latvec1
-4.75921295293 8.28659453962 0 #latvec2
0.303596492803 0.0493968083236 10.4736484697 #latvec3

ATOMIC_POSITIONS
Cartesian

Si #label
0 #magnetism
36 #number of atoms
0.029338804826  1.83275714538  2.55326119005  m  1  1  1  v  0.000106464466675  0.000267357504224  -0.000188896101719
3.12725425833  7.25076735479  2.49919585491  m  1  1  1  v  0.000259456214348  0.000150273448339  -0.000264800419864
-3.14536504053  7.20831504037  2.57903193399  m  1  1  1  v  0.000172439404518  2.28951136701e-05  0.000113494130647
4.70253064622  6.36218206208  5.05290924929  m  1  1  1  v  -9.85768805407e-05  1.02370229195e-06  -7.34972105168e-06
1.6281761756  0.927438357337  5.10649829821  m  1  1  1  v  -5.37386151015e-05  -3.48160156795e-05  0.000105735915719
7.89158575227  0.986309809841  5.0423419388  m  1  1  1  v  -0.00013474283922  -1.7815355466e-06  4.19404506911e-05
0.0901843094257  1.8298210022  7.7061820117  m  1  1  1  v  0.000280802689331  -3.18829949728e-05  6.49154262803e-05
3.18676143443  7.27844405059  7.64126524235  m  1  1  1  v  -6.43426475888e-05  -0.000275834352449  -4.61541626974e-05
-3.05605516529  7.24814646493  7.74456455293  m  1  1  1  v  -0.00010034405068  0.000168187081118  0.000226633214234
4.78176944219  6.38313731579  10.2175667494  m  1  1  1  v  -0.000219070421556  -0.000159744608159  0.000138050440223
1.69634406857  0.934525988471  10.252206268  m  1  1  1  v  -5.77335871113e-05  0.000253359781992  7.90260611412e-05
7.98206048736  0.973985030497  10.1610221836  m  1  1  1  v  5.03731550144e-05  0.000165846949881  -9.82941464746e-05
-1.55947924948  4.52263048046  2.59230662408  m  1  1  1  v  0.000175882855628  3.26613302614e-05  0.000150357459076
1.58390813732  4.55167763165  2.53564331358  m  1  1  1  v  -4.21591413562e-05  -6.34967759744e-05  0.000150721365688
-0.0206922437836  7.23781902526  2.52446991003  m  1  1  1  v  -5.91772603791e-05  0.000227122577366  0.000155290954918
6.30631180655  3.65964566758  5.04080124606  m  1  1  1  v  1.8063005188e-05  -0.000241489947573  -0.000114400462904
3.16402662072  3.64257677223  5.07982450711  m  1  1  1  v  -0.000232977441311  5.07182135678e-05  -0.000156049189496
4.74683469433  0.940966755669  5.07744738024  m  1  1  1  v  -0.000157037279128  -4.67069057018e-05  -0.000119332436672
-1.49532376968  4.52971089218  7.71503839461  m  1  1  1  v  -0.000171925571757  0.000204388587052  1.38911785814e-05
1.64139020283  4.56042905347  7.66923034313  m  1  1  1  v  6.17134269966e-05  -2.77216507757e-05  0.000193190936182
0.0677639234625  7.27240278734  7.68761196558  m  1  1  1  v  0.000158118646204  0.000244106679261  0.0001327609721
6.38406911711  3.67472066252  10.1710618404  m  1  1  1  v  -0.000140883226229  -2.80008433888e-05  5.91870828333e-05
3.26752989483  3.652766513  10.237768103  m  1  1  1  v  6.76122352527e-05  -0.000168975819444  6.01773610929e-05
4.84751772113  0.970133003211  10.2017237096  m  1  1  1  v  -8.17343236271e-05  9.12252440928e-05  1.78098455301e-05
3.13985131158  1.84897438438  2.52135351283  m  1  1  1  v  0.000100728547894  -0.000287500655346  0.000190714755802
6.27274065092  1.86052738047  2.48140127564  m  1  1  1  v  0.000246635279852  9.22209718016e-05  -4.12001350509e-05
4.69732544503  4.56031040463  2.47929411789  m  1  1  1  v  0.000127593443083  0.000182153232453  1.70657769397e-05
1.60333758812  6.35273373875  5.08839014522  m  1  1  1  v  -3.6948960008e-05  4.13692817553e-05  -9.31279051043e-06
-1.52334807856  6.32588838  5.15622920157  m  1  1  1  v  0.000178519583559  0.000178116943777  -0.000148706661347
0.0596224236591  3.63650545056  5.11412944553  m  1  1  1  v  -0.000124437635584  0.000217920365256  -0.000156122517494
3.22189589806  1.84050341392  7.65986640824  m  1  1  1  v  -0.00025205629382  4.31649441942e-05  7.16572869136e-05
6.37045826613  1.88940928717  7.61152632722  m  1  1  1  v  0.000202039682423  -7.67977882836e-05  5.57527831773e-05
4.78592558318  4.57336853139  7.63679937777  m  1  1  1  v  -0.000112096106679  -4.85780253352e-06  0.000210376875022
1.67796051084  6.34278044897  10.2463903826  m  1  1  1  v  -4.32110649415e-05  -6.18515185857e-05  2.29299120014e-05
-1.46597288297  6.33860840097  10.2758898976  m  1  1  1  v  -3.81086769012e-05  1.6778111031e-05  8.08567788794e-05
0.126415718662  3.62695805663  10.2601871246  m  1  1  1  v  0.000157280837539  -5.99509973823e-05  -0.000142738289101

C #label
0 #magnetism
36 #number of atoms
0.0497422428497  1.84137822624  4.48748862251  m  1  1  1  v  0.000270741281718  9.62702779621e-05  -1.70746839167e-05
3.13850038036  7.24750637008  4.40580178688  m  1  1  1  v  0.000229551556765  8.27218844616e-05  -0.000403167402498
-3.10664067547  7.24847205127  4.52991672193  m  1  1  1  v  -0.00023644766909  0.000363981576401  0.000284174366973
4.77610449317  6.3550681711  6.97278038017  m  1  1  1  v  -4.92962312293e-05  -0.000377164833207  0.000180332587884
1.66115243524  0.93675436847  7.03555441341  m  1  1  1  v  -0.000234605412183  -0.000312601606958  -0.000248117671564
7.92524969823  0.955034254073  6.93397315384  m  1  1  1  v  -0.000160890775018  -0.000496921257645  0.000182847502722
0.11217402504  1.8257376676  9.62226872196  m  1  1  1  v  7.63888062735e-05  -6.46624961314e-05  0.000108606128654
3.2242950716  7.29105503422  9.55585023162  m  1  1  1  v  -0.000190306107296  0.000354712993185  4.42152030528e-05
-3.02204785644  7.25811169411  9.67443876175  m  1  1  1  v  0.000363814161318  0.000299045386981  1.11744704535e-05
4.68775081975  6.34653857858  1.84021133267  m  1  1  1  v  -0.000152396133131  -4.3462300102e-05  0.000390775411784
1.58737511093  0.918222271452  1.90708554948  m  1  1  1  v  0.000139076271425  0.00010729517709  -2.26257407074e-05
7.83693838306  0.974518620516  1.82024346231  m  1  1  1  v  0.000139136249799  -0.000195460902873  2.96953375644e-05
-1.54618551288  4.51125432114  4.49077983025  m  1  1  1  v  -0.000175591458449  -0.000353776295218  -0.000163933364453
1.57962405987  4.55892286907  4.43146222691  m  1  1  1  v  -0.000430100567914  8.44762719005e-05  -8.69960522305e-06
0.0157390667655  7.25058580947  4.49784992038  m  1  1  1  v  0.000203801968315  -9.28011166201e-05  -0.000327049161815
6.33323114009  3.6989651787  6.97835604411  m  1  1  1  v  -0.000106756901789  0.000214173906625  -0.000263476425915
3.19179450689  3.62683101175  7.00195859165  m  1  1  1  v  7.73341089413e-05  -0.0002417061365  0.000143877072942
4.78396027486  0.953390352173  6.98026937828  m  1  1  1  v  0.000208241472107  1.72242808595e-05  -8.09760923804e-06
-1.46597601774  4.52266401167  9.63065887012  m  1  1  1  v  -0.000210327500194  -8.32858133961e-05  -0.00034039696099
1.67471033267  4.5689096232  9.58854078951  m  1  1  1  v  0.000249050433217  0.00025673496612  0.000166195157708
0.0907653876042  7.24127832532  9.64017533106  m  1  1  1  v  0.000177429986923  -2.22782006054e-05  0.000298251855501
6.26583841244  3.66854954545  1.81509178298  m  1  1  1  v  0.000140398683926  7.25893286269e-05  -0.000347970715375
3.14366421677  3.63893854786  1.84223009827  m  1  1  1  v  0.000212942463439  -0.000150594107724  -0.000251850269912
4.72644642196  0.924095675587  1.87555888192  m  1  1  1  v  4.68437246775e-05  -0.00013152834857  -0.00015151018906
3.19644063607  1.85070732014  4.45199700341  m  1  1  1  v  1.33338058748e-05  8.76778570872e-05  -0.000256818670871
6.3228370452  1.844469635  4.38978662979  m  1  1  1  v  0.000195817017222  3.15546370488e-05  3.25946655374e-05
4.74857435398  4.58177221815  4.40775203333  m  1  1  1  v  -7.24275053955e-05  6.60788727369e-05  -0.00025557615108
1.6336051219  6.34259614027  7.04103704103  m  1  1  1  v  6.85851976855e-05  -0.000186950115148  0.00026909606848
-1.52199236547  6.35197780825  7.08504633299  m  1  1  1  v  6.04276691423e-05  3.22889605998e-06  0.000167891641408
0.086794076925  3.63570423267  7.06048368405  m  1  1  1  v  0.000214010202154  -0.000244445172254  -5.35047903095e-05
3.24022598824  1.86231418969  9.58113903652  m  1  1  1  v  -0.000130607291744  -0.000108136923422  -0.000120232716303
6.39936315293  1.84617751257  9.53052993682  m  1  1  1  v  0.000145405273748  -0.000391715062332  -1.37782814316e-05
4.80289168751  4.57051313867  9.56180462958  m  1  1  1  v  -0.000168770084083  -0.000172493065713  0.000332629387785
1.56735726379  6.34080752502  1.89308464135  m  1  1  1  v  8.70060296796e-05  -7.53372801804e-05  0.000156557774372
-1.56976819524  6.29049311862  1.93902477387  m  1  1  1  v  -3.12500639861e-05  -2.41753376566e-05  0.000272104265154
0.007761037792  3.63032442402  1.88984128857  m  1  1  1  v  -0.000263566537923  0.000170168658194  -0.000167842450843
