ATOMIC_SPECIES
Si 28.085 Si_ONCV_PBE-1.0.upf
C 12.011 C_ONCV_PBE-1.0.upf

LATTICE_CONSTANT
1.8897261254578281

LATTICE_VECTORS
9.531852647821633 0.0 0.0 
-4.793540164860998 7.974295619315091 0.0 
0.028140942433445174 0.2188294586022639 10.506484746691312 

ATOMIC_POSITIONS
Cartesian    # Cartesian(Unit is LATTICE_CONSTANT)
Si
0.0
36
0.004045279183 1.843551833824 2.544407235264 1 1 1
3.130122062429 7.252192830096 2.479612610208 1 1 1
-3.138414580872 7.252415660891 2.489325518458 1 1 1
4.697247939930 6.390441727729 5.065105838570 1 1 1
1.575850484434 0.960593569864 5.122276096515 1 1 1
7.842723296026 0.976327030436 5.131204248842 1 1 1
0.004815893396 1.902594174147 7.686295237276 1 1 1
3.128005057661 7.308595814179 7.638661175660 1 1 1
-3.122926932733 7.312311025365 7.632803507264 1 1 1
4.690467007583 6.441914787528 10.212588979733 1 1 1
1.574202338441 1.012651346789 10.266247346607 1 1 1
7.840533907898 1.019883139122 10.250150455964 1 1 1
-1.561307499465 4.548618632406 2.525659653794 1 1 1
1.572553221241 4.559234513739 2.510400676921 1 1 1
-0.009809534255 7.255407488469 2.487339086773 1 1 1
6.258542095184 3.685449509123 5.086356418876 1 1 1
3.114564502619 3.671534529878 5.105371193239 1 1 1
4.690542182686 0.968135992004 5.117383602907 1 1 1
-1.564847744817 4.586761047442 7.643252664244 1 1 1
1.553420876315 4.608107732042 7.647970572270 1 1 1
0.002354630285 7.311718782743 7.625077206439 1 1 1
6.269885717866 3.741921018919 10.221627789451 1 1 1
3.137559369080 3.724869836712 10.238753854384 1 1 1
4.708210107575 1.022026451371 10.264704566025 1 1 1
3.122340768749 1.839783458821 2.543042637158 1 1 1
6.260243429470 1.842924242109 2.542509986821 1 1 1
4.697647634329 4.561905696843 2.507802802563 1 1 1
1.555806616758 6.371438411733 5.065400690030 1 1 1
-1.556638920101 6.376377859083 5.078359208418 1 1 1
0.001065520058 3.674487068591 5.087017905432 1 1 1
3.140484725967 1.899981827855 7.682297166142 1 1 1
6.279328899124 1.914625904064 7.691389259941 1 1 1
4.706341318341 4.608593175869 7.662415912322 1 1 1
1.567638379150 6.415493191645 10.220044146356 1 1 1
-1.570011122503 6.420898518364 10.196488913778 1 1 1
-0.008434483667 3.705845214899 10.235533371042 1 1 1
C
0.0
36
-0.000729681661 1.854548655433 4.470260115990 1 1 1
3.121726215394 7.282606064699 4.412466289711 1 1 1
-3.135077509346 7.262214740541 4.425646033083 1 1 1
4.698474124511 6.405785580864 6.997439251726 1 1 1
1.569695462440 0.976745085617 7.059181862355 1 1 1
7.828724693319 0.991210417696 7.043579714004 1 1 1
-0.002176657905 1.919637436015 9.603423389170 1 1 1
3.142056653211 7.339140075693 9.541192147917 1 1 1
-3.141704508851 7.332556548866 9.573975589615 1 1 1
4.697642900826 6.363460122457 1.852352918713 1 1 1
1.564633810241 0.930041899827 1.923478653586 1 1 1
7.835503819076 0.937517516145 1.902134592949 1 1 1
-1.570574975724 4.569723392794 4.459373303942 1 1 1
1.567511319317 4.554993586339 4.443731324450 1 1 1
0.002211762938 7.274711855402 4.421874203673 1 1 1
6.264258527159 3.701955203317 7.023920779410 1 1 1
3.128624834826 3.696101609393 7.017259774429 1 1 1
4.694942262195 0.994452575898 7.062592813371 1 1 1
-1.568635313046 4.623779546789 9.578120233906 1 1 1
1.566270253515 4.627823427817 9.583309439021 1 1 1
0.004184819405 7.318015102699 9.568461436895 1 1 1
6.263587290010 3.646183234913 1.879272846690 1 1 1
3.129672251780 3.657128704674 1.886534106195 1 1 1
4.698345975014 0.931530950469 1.929053094724 1 1 1
3.134240696384 1.851826369747 4.480081114665 1 1 1
6.257813072993 1.858487342668 4.472079857225 1 1 1
4.689781068895 4.572377107304 4.454306971833 1 1 1
1.551403656599 6.401499600825 6.975035101353 1 1 1
-1.571596779654 6.405121046811 6.999735544247 1 1 1
0.002185146284 3.683266465305 7.032271360704 1 1 1
3.130225484614 1.910261712563 9.618216317753 1 1 1
6.277057741870 1.913916277086 9.607251312034 1 1 1
4.689001808589 4.633716590478 9.582801538853 1 1 1
1.573620236462 6.357564795780 1.867220233728 1 1 1
-1.567014836369 6.347812537313 1.855462390010 1 1 1
0.011866170072 3.646956988283 1.884562567883 1 1 1

NUMERICAL_ORBITAL
Si_gga_9au_100Ry_3s3p2d.orb
C_gga_9au_100Ry_3s3p2d.orb
