ATOMIC_SPECIES
Si 28.085 Si_ONCV_PBE-1.0.upf upf201
C 12.011 C_ONCV_PBE-1.0.upf upf201

NUMERICAL_ORBITAL
Si_gga_9au_100Ry_3s3p2d.orb
C_gga_9au_100Ry_3s3p2d.orb

LATTICE_CONSTANT
1.88972612546

LATTICE_VECTORS
9.47852736799 0 0 #latvec1
-4.85301142685 7.99885264997 0 #latvec2
-0.213846025732 0.144814790171 10.3643954532 #latvec3

ATOMIC_POSITIONS
Cartesian

Si #label
0 #magnetism
36 #number of atoms
-0.0422519211229  1.82907117864  2.54738298425  m  1  1  1  v  2.08222112447e-05  -5.34848695057e-06  1.34555746122e-05
3.0523519142  7.26797199152  2.54825362317  m  1  1  1  v  8.80550339023e-06  -1.47003972316e-05  2.75078094137e-05
-3.21095662384  7.22726301134  2.48135380437  m  1  1  1  v  -5.13704579227e-05  1.41017324051e-05  -1.22500325592e-05
4.60070338859  6.39423373344  5.13387876777  m  1  1  1  v  5.06210832341e-05  -5.44693153308e-05  3.69179263889e-06
1.50415046855  0.949017836851  5.14093790701  m  1  1  1  v  1.45510166814e-05  3.88272604189e-05  -2.83786180457e-05
7.77276558984  1.00474956298  5.2151737391  m  1  1  1  v  3.19016495298e-07  -5.67690194237e-06  5.60940028368e-06
-0.0939056935744  1.86702840061  7.70017299214  m  1  1  1  v  -3.59402677604e-05  -4.7374172969e-06  -8.39284815119e-07
3.00452910376  7.3091418117  7.68903808284  m  1  1  1  v  2.41853717426e-05  2.49994627707e-05  -4.10585253683e-05
-3.25189511527  7.26446135131  7.61987848017  m  1  1  1  v  4.91735204922e-05  1.34704857126e-05  -2.21277793633e-06
4.54937933877  6.43623834147  10.2839611702  m  1  1  1  v  4.51656259477e-06  -1.56630651859e-05  2.29569199702e-05
1.45033233015  0.9835191046  10.2848984376  m  1  1  1  v  -3.60673516164e-06  4.31457733531e-05  -7.86229155721e-06
7.71780563956  1.02908239646  10.3495927677  m  1  1  1  v  1.52729539727e-05  -3.04159189209e-05  -2.5113218204e-05
-1.61885626772  4.53279856513  2.52165779944  m  1  1  1  v  -6.1575338024e-06  -1.85475888336e-05  -2.91298305641e-05
1.51794184759  4.55619092384  2.55207550447  m  1  1  1  v  6.82219232602e-06  2.35216016119e-05  -9.81867343464e-06
-0.0827313107327  7.24399167624  2.50962497224  m  1  1  1  v  -9.31283028812e-06  -1.4861185074e-05  -4.55236308994e-05
6.17942533362  3.69504431247  5.16913081378  m  1  1  1  v  -1.31307426207e-07  -1.28883568417e-05  3.20378699329e-05
3.04642453171  3.6697105991  5.14536804969  m  1  1  1  v  -3.57207413218e-06  5.65397935133e-05  -1.06519198904e-06
4.63576754126  0.969655126545  5.17959027467  m  1  1  1  v  -2.18821980159e-05  7.66364199516e-07  1.65814596405e-05
-1.67922047789  4.55715969557  7.6499633882  m  1  1  1  v  6.00738108406e-07  7.63174208248e-06  -2.47717324543e-05
1.44995784819  4.58931078225  7.68613976557  m  1  1  1  v  1.7587874155e-05  3.70421200359e-05  -3.70673936403e-05
-0.129253884914  7.28430938438  7.65248591641  m  1  1  1  v  5.3533948387e-06  -1.94670914353e-05  -6.11241697166e-06
6.13225061301  3.73308020387  10.3086786564  m  1  1  1  v  1.8244697657e-05  2.82925424105e-05  -1.48488975351e-05
3.00048753019  3.71362036145  10.2903423779  m  1  1  1  v  -1.37193485462e-05  1.24263692237e-05  -2.94349873755e-05
4.58162201963  1.01246304665  10.3128314377  m  1  1  1  v  2.66233922009e-05  1.69441610939e-05  5.69915681345e-07
3.0871696605  1.8445702924  2.58916790238  m  1  1  1  v  2.58302585565e-06  2.65374634387e-05  -4.88169442525e-06
6.22812874537  1.86766930546  2.62448342963  m  1  1  1  v  1.23301498859e-05  -6.6101623716e-06  2.91507443929e-05
4.64032871728  4.57502905224  2.58660115233  m  1  1  1  v  -7.94985273518e-07  1.85029206306e-05  -4.40263366491e-06
1.47000979043  6.37180284647  5.10494584811  m  1  1  1  v  -4.57363578911e-05  5.29439844793e-05  -2.59179792814e-05
-1.66155020034  6.35053719014  5.08015919194  m  1  1  1  v  1.28455016267e-05  -3.38609726261e-05  2.37431330036e-05
-0.0824178459069  3.65690314672  5.09824119955  m  1  1  1  v  -2.49032512124e-05  -3.9395597677e-06  -4.0296572377e-05
3.03438746917  1.88494929084  7.71921465842  m  1  1  1  v  -2.88074898566e-05  -1.177375606e-05  3.40952242417e-05
6.16904856192  1.91419841314  7.76412692662  m  1  1  1  v  -6.10086977136e-05  2.73674370865e-06  3.91217072301e-05
4.58713180416  4.60338498299  7.72551668594  m  1  1  1  v  3.16797747136e-05  -2.13812044224e-05  3.20890412082e-05
1.40933231319  6.40121641063  10.2495463022  m  1  1  1  v  -2.54901981885e-05  -1.6014034434e-05  -2.73751988562e-05
-1.72096940431  6.38320996522  10.2072970926  m  1  1  1  v  5.05569824879e-06  -3.46447231809e-05  -1.99980436516e-05
-0.135092984847  3.68320099662  10.2427006281  m  1  1  1  v  4.44762661357e-06  -5.48247991553e-06  4.95554440045e-06

C #label
0 #magnetism
36 #number of atoms
-0.063864032359  1.83880041764  4.48245336322  m  1  1  1  v  -3.45923957259e-05  2.31947392564e-05  -2.78639326482e-05
3.04022024661  7.28306579699  4.4799754691  m  1  1  1  v  -6.29539355816e-06  -2.27555423688e-05  -2.3092418558e-05
-3.21957412275  7.2397575656  4.41794409671  m  1  1  1  v  2.49761263203e-05  2.88595732134e-05  9.06693765834e-07
4.58182134707  6.4019690981  7.06389068384  m  1  1  1  v  1.28495588891e-06  3.02695879223e-05  4.78883536891e-05
1.48627145486  0.97181477919  7.07286302116  m  1  1  1  v  -6.00497084141e-06  -2.85653333107e-05  -8.24729123228e-06
7.75234689681  0.99988239444  7.14445880355  m  1  1  1  v  4.3819650622e-05  2.05454783474e-05  5.7519950912e-05
-0.103667649164  1.87788647762  9.61752818635  m  1  1  1  v  6.4663973941e-06  -4.42216575238e-05  -4.57011079404e-05
2.9823272122  7.32102842619  9.6137778645  m  1  1  1  v  -2.15743502958e-05  -7.66476759401e-05  2.7788686913e-05
-3.28354539968  7.27206924237  9.55262168524  m  1  1  1  v  7.94339240274e-05  -4.84710844697e-05  9.5541151639e-06
4.63060898226  6.3736228472  1.93266038492  m  1  1  1  v  -3.2330166362e-05  1.09733071286e-05  6.07247172409e-05
1.54261627228  0.924505977058  1.94294767041  m  1  1  1  v  4.08331703428e-07  4.2447731878e-05  5.07380830409e-05
7.80176615756  0.980743332024  2.00126287199  m  1  1  1  v  1.99204204328e-05  6.17470375692e-06  3.61194500694e-07
-1.65079342772  4.54099396336  4.44491823891  m  1  1  1  v  7.41341011426e-05  2.11513898427e-06  -1.56532505777e-05
1.4841820132  4.55058073695  4.47876536048  m  1  1  1  v  5.82099065719e-06  3.25707082865e-05  -5.10475635618e-05
-0.0950087799794  7.25512643705  4.45114610502  m  1  1  1  v  1.64812962036e-05  -4.67928482166e-05  4.29393618875e-05
6.16618608432  3.70000887858  7.10283691365  m  1  1  1  v  -4.86064611245e-05  -2.46948308442e-05  -4.62065171308e-05
3.02880618171  3.68177873798  7.07143343007  m  1  1  1  v  -3.26664090176e-05  1.13089011225e-05  -4.85603418362e-05
4.61344941461  0.984916835017  7.10684959584  m  1  1  1  v  1.78975427945e-05  3.88426838035e-06  1.68082798518e-05
-1.6934557242  4.5792052666  9.57860102138  m  1  1  1  v  -7.5791436763e-05  1.77636280098e-05  1.11371367816e-05
1.43251896617  4.60095959645  9.61383649749  m  1  1  1  v  -3.07957605584e-05  -2.59671471023e-05  9.34355141043e-05
-0.14838877078  7.29869862863  9.58348062574  m  1  1  1  v  1.84011013175e-05  5.91290742065e-07  -1.9088776954e-05
6.21734401165  3.6729592466  1.96704648072  m  1  1  1  v  2.86626021822e-05  -6.24158857762e-05  3.97885790174e-05
3.08157982727  3.64975084397  1.93140358081  m  1  1  1  v  1.67668790751e-05  -1.5952689281e-05  7.71966184706e-05
4.66474328145  0.950218228784  1.97438309531  m  1  1  1  v  -1.52391268922e-05  -3.50497059733e-06  -7.72180734408e-05
3.08018693286  1.86059330997  4.52746659416  m  1  1  1  v  1.49619373817e-05  -3.02222885472e-05  2.47818291774e-06
6.2015638987  1.87617571532  4.54627125877  m  1  1  1  v  -2.4602340928e-05  -2.54120505301e-05  6.37272349724e-05
4.62301558144  4.58481988475  4.51696026306  m  1  1  1  v  4.75924329625e-05  4.70840044982e-05  -2.23257699486e-05
1.45263596293  6.38566656305  7.03244387721  m  1  1  1  v  -4.93671056398e-05  5.65543139957e-05  5.98335135065e-05
-1.69414007853  6.36716830787  6.99846028764  m  1  1  1  v  3.89978628582e-05  -3.1159385664e-05  2.32768776533e-05
-0.100360333652  3.66197579363  7.03811062504  m  1  1  1  v  -3.89061135847e-05  2.41624980458e-05  7.0394117947e-06
3.01672597688  1.89068813772  9.65754375655  m  1  1  1  v  2.3461407892e-05  -4.56840597088e-05  6.14269478324e-07
6.14790537369  1.91025211852  9.68628724956  m  1  1  1  v  -4.13939429452e-05  -1.0535026747e-05  1.99978088189e-05
4.5616348407  4.61536142275  9.65187151706  m  1  1  1  v  3.34761223275e-06  -2.0306499026e-05  -3.42453865083e-05
1.5085831741  6.36019438622  1.90272035433  m  1  1  1  v  -1.90023527478e-05  6.25243107546e-05  6.97428300338e-05
-1.6195210696  6.32630582282  1.85415733784  m  1  1  1  v  3.04790471808e-05  -4.47570255169e-05  3.52521851059e-05
-0.0484612099274  3.62564615126  1.89621249724  m  1  1  1  v  -3.61640007638e-05  -1.8604412712e-05  -4.22262413575e-05
