ATOMIC_SPECIES
Si 28.085 Si_ONCV_PBE-1.0.upf upf201
C 12.011 C_ONCV_PBE-1.0.upf upf201

NUMERICAL_ORBITAL
Si_gga_9au_100Ry_3s3p2d.orb
C_gga_9au_100Ry_3s3p2d.orb

LATTICE_CONSTANT
1.88972612546

LATTICE_VECTORS
9.47852736799 0 0 #latvec1
-4.85301142685 7.99885264997 0 #latvec2
-0.213846025732 0.144814790171 10.3643954532 #latvec3

ATOMIC_POSITIONS
Cartesian

Si #label
0 #magnetism
36 #number of atoms
-0.0382961201635  1.82771767778  2.54767652805  m  1  1  1  v  -1.95282398588e-06  -1.88776251918e-05  -2.62232144227e-05
3.05066353251  7.26715304267  2.55218942105  m  1  1  1  v  3.26634602983e-05  -1.07101022589e-05  -1.17016834808e-05
-3.21684062227  7.22222173476  2.48377026917  m  1  1  1  v  -7.38530629138e-05  -6.19888964219e-05  9.70275276683e-05
4.60195748247  6.39662817516  5.13395810885  m  1  1  1  v  -6.92597104146e-05  6.3403869758e-05  8.62191929357e-05
1.50396215519  0.961139161983  5.14233485194  m  1  1  1  v  -8.01077820357e-05  4.50570014836e-05  -5.83804269955e-05
7.77360344739  1.0131859434  5.21258964442  m  1  1  1  v  -8.41331582845e-05  0.000171672079543  -9.78895542308e-05
-0.0984571223867  1.86604766405  7.70316507115  m  1  1  1  v  5.70897669746e-06  3.46418814624e-05  3.96421022443e-05
2.99853222438  7.30985111912  7.68144311298  m  1  1  1  v  -9.33327956174e-05  3.05361182173e-05  -8.47257465017e-05
-3.25417700555  7.26366826618  7.62306220669  m  1  1  1  v  -0.000108321503458  1.089774784e-05  -2.75047288605e-05
4.54739170756  6.44153068122  10.2822429044  m  1  1  1  v  -4.52623107416e-05  -6.37893403596e-05  -1.70167698521e-05
1.44419138204  0.980240745328  10.2884371897  m  1  1  1  v  -0.000119347718811  -2.28511391157e-05  -5.44818074551e-05
7.71965016863  1.0254073466  10.3463829455  m  1  1  1  v  8.59121005373e-05  -5.13438377224e-06  -3.79701662078e-05
-1.62178126689  4.53180739276  2.52322974278  m  1  1  1  v  -0.000174066933399  -0.000103663373768  0.00015149979772
1.52244990345  4.56146476291  2.54935762414  m  1  1  1  v  0.00013711211572  -0.00017316762196  -1.44839468775e-05
-0.0845560030457  7.23997990799  2.50291170688  m  1  1  1  v  9.39647464597e-06  -4.57752265199e-05  -0.000190597025006
6.18592738565  3.69518233398  5.17103068288  m  1  1  1  v  -2.25491591794e-05  0.000110018300864  0.000180181690979
3.0465225721  3.66800641022  5.14385485798  m  1  1  1  v  0.000122313019138  -0.000106676353892  -1.47729511158e-05
4.63118908347  0.976627969911  5.18352519745  m  1  1  1  v  -6.63664383882e-05  3.56388317379e-05  2.98132955451e-05
-1.68377607912  4.56282137004  7.65023595103  m  1  1  1  v  5.61580383544e-05  -7.65868920526e-05  7.08848761986e-05
1.4513067638  4.59307393893  7.68433871496  m  1  1  1  v  6.3303968867e-06  0.000100958913788  1.88237072008e-05
-0.131645278009  7.28781843935  7.65585182179  m  1  1  1  v  -2.90760725022e-05  0.000184906215519  -2.32051022479e-05
6.13474604681  3.73359298921  10.3042324707  m  1  1  1  v  -6.91681979554e-05  6.37380544584e-05  -3.65385098981e-05
3.00089890462  3.71093067617  10.2939335422  m  1  1  1  v  0.000109371765889  0.000127799255328  8.92188485704e-05
4.58275033215  1.01706326134  10.3064141553  m  1  1  1  v  3.81545002896e-05  5.57384793368e-05  -6.61594875366e-05
3.08855759247  1.84606850248  2.59051801094  m  1  1  1  v  2.20902307774e-05  6.92306164956e-05  0.000125625190332
6.22169046174  1.86972748259  2.62409700505  m  1  1  1  v  -0.000169357312217  3.07897372122e-05  5.1293912711e-06
4.64369988221  4.56770227097  2.5907855338  m  1  1  1  v  8.36536100995e-06  -8.42839063712e-05  0.000122229822798
1.4695251986  6.37518016992  5.09952566324  m  1  1  1  v  7.29482431011e-06  6.61059851394e-05  -7.15227772887e-05
-1.66318474355  6.3469526522  5.08739455203  m  1  1  1  v  3.44365230104e-05  -9.93110151908e-05  7.04497154885e-05
-0.0783038160167  3.65541814797  5.09992334765  m  1  1  1  v  0.000108363017004  -0.000102060013713  -5.03112134996e-05
3.0298742478  1.88168680418  7.72245220423  m  1  1  1  v  -9.72911259847e-05  -0.000108615892787  0.000175549631994
6.17407648109  1.91979928015  7.75799090531  m  1  1  1  v  9.78999690911e-05  3.88332559302e-05  8.1370213916e-06
4.58579445798  4.59977365337  7.71724814091  m  1  1  1  v  6.20352106995e-05  -6.70143376345e-05  -9.4776658341e-05
1.41104565356  6.40746234233  10.2523442981  m  1  1  1  v  -8.81303772305e-05  -4.63385369066e-05  -5.42466591196e-05
-1.71894851932  6.38278273091  10.2116729615  m  1  1  1  v  -0.000176346901412  -1.60584899783e-05  -9.36285257036e-07
-0.132335549481  3.68583421941  10.248474728  m  1  1  1  v  -5.74988416212e-05  4.6239278535e-05  3.41283852216e-05

C #label
0 #magnetism
36 #number of atoms
-0.0716586694701  1.84526866709  4.47672101507  m  1  1  1  v  -4.88920936632e-05  0.000102317155074  -5.13134821914e-05
3.03123150184  7.27781517494  4.48168401971  m  1  1  1  v  -0.000195885406606  6.57514128172e-05  2.73184941653e-05
-3.2285551217  7.23953961974  4.42261357581  m  1  1  1  v  2.48323756823e-05  -0.000233677804871  0.000243974310048
4.58896126032  6.41684030778  7.0513607606  m  1  1  1  v  -0.000178482543386  -6.18950763579e-05  8.79704592655e-05
1.48656749216  0.976725163383  7.07519810546  m  1  1  1  v  9.26495142077e-05  0.000210843943471  -0.000140629628379
7.76750469732  1.01189746641  7.13083899499  m  1  1  1  v  9.90797986141e-06  0.000388700436044  -7.13730566549e-05
-0.125398816196  1.87086627305  9.62035995189  m  1  1  1  v  -0.000340530306835  7.42046844236e-05  -0.000131964034343
2.97047210956  7.30396118333  9.60411761492  m  1  1  1  v  -0.00012846066279  -0.000105090555217  -0.000190110430252
-3.28960819941  7.27048760159  9.55561610413  m  1  1  1  v  0.000103686628534  -2.43159447152e-05  0.000149757969875
4.64210290553  6.36798288422  1.92733427543  m  1  1  1  v  0.000133609397625  -6.77898407605e-05  -0.000200848582644
1.53864402249  0.935704682777  1.92882881032  m  1  1  1  v  -0.00017936085019  -6.90475189941e-05  -0.000110410491331
7.81401088143  0.992626429278  2.00547794848  m  1  1  1  v  0.000102972673565  7.34597833618e-05  -5.44372497716e-05
-1.66309104729  4.54793125169  4.451761981  m  1  1  1  v  0.00010651675979  7.09206241211e-05  -0.000147659773487
1.4715289321  4.55933373795  4.47453374676  m  1  1  1  v  -6.13102413023e-06  -8.77050511722e-05  -0.000196475601931
-0.100055891336  7.25046303869  4.45683387375  m  1  1  1  v  3.9278652181e-05  -8.80033878578e-06  -2.77316758843e-05
6.15626304712  3.71053184451  7.11370926299  m  1  1  1  v  -3.07847561043e-05  1.58003073687e-06  0.000252127551906
3.02977900239  3.68401227645  7.06369376182  m  1  1  1  v  -9.94333712802e-05  2.68449832819e-05  -3.83380943939e-06
4.60871878297  0.998127746512  7.09709395738  m  1  1  1  v  0.000101009548107  0.000305393863076  -0.000127749494451
-1.6926418458  4.56567687889  9.5895312837  m  1  1  1  v  -0.000167990634024  2.98708028951e-05  0.000264975272341
1.42424209553  4.60386267846  9.60874601788  m  1  1  1  v  -5.29662722082e-06  -0.000211155124854  -0.000142952695255
-0.143865709497  7.29536070475  9.59585755186  m  1  1  1  v  0.000156622202484  -7.84610895459e-05  8.43836211051e-05
6.22793757369  3.68058576105  1.95954091907  m  1  1  1  v  0.000115050008163  -3.33024734466e-06  0.000105243536178
3.0805131965  3.64788790305  1.92720751268  m  1  1  1  v  0.000148442033423  -0.000230785781014  -0.000155348036127
4.67376086668  0.950538762278  1.96534267108  m  1  1  1  v  0.000325237404434  0.000164411376641  6.79330068257e-05
3.07177662998  1.86502328105  4.52204473574  m  1  1  1  v  -0.000241648930777  0.000148555144526  0.000123289429744
6.19932962159  1.86957936669  4.54036472367  m  1  1  1  v  -0.000286337434351  -0.000244794099446  -0.000204643485767
4.61902804366  4.5915890875  4.50214091111  m  1  1  1  v  -5.97250060823e-06  -2.30224145724e-05  -0.000165036692785
1.45315590157  6.3880818187  7.03731008622  m  1  1  1  v  -3.92230717674e-05  5.53738175484e-05  5.97845079598e-05
-1.69798752544  6.37035058057  6.99901705675  m  1  1  1  v  0.000214678148234  -8.14637895636e-05  0.000110331907241
-0.0987755550834  3.66772752977  7.04202182549  m  1  1  1  v  9.83404069741e-05  0.000264835316285  -0.000129726558158
3.01099429196  1.89368814087  9.66253063421  m  1  1  1  v  -6.73228213152e-05  0.000102755502552  0.000179081722387
6.14945561212  1.90756064915  9.69216546199  m  1  1  1  v  2.70487781588e-05  -0.000147053631319  -0.000157025354141
4.57019560383  4.60793027312  9.66508231646  m  1  1  1  v  0.000139897613179  -9.33973390221e-06  -3.56575700782e-05
1.50519583084  6.35505285912  1.89970611917  m  1  1  1  v  3.05103554403e-05  -7.23629068938e-05  -0.000299715942578
-1.61692222976  6.31369612115  1.85632545669  m  1  1  1  v  0.000120852252215  -0.000320606394391  0.000193826533457
-0.0588287241598  3.6246758055  1.88647857986  m  1  1  1  v  -7.60011681262e-05  -0.000261503275913  -4.83877256364e-05
