ATOMIC_SPECIES
Li   6.9410 Li_ONCV_PBE-1.2.upf

LATTICE_CONSTANT
1.8897260000

LATTICE_VECTORS
        4.1394177600        0.0000000000        0.0000000000
        0.0000000000        4.1394177600        0.0000000000
        0.0000000000        0.0000000000        4.1394177600

ATOMIC_POSITIONS
Cartesian

Li #label
0.0000   #magnetism
8 #number of atoms
        1.0579687480        1.4460470570        3.6271020286 m 1 1 1 v        0.0010285885        0.0009497908       -0.0001378397
        3.7297805404        0.5776954799        1.3323407919 m 1 1 1 v       -0.0004875668        0.0021776673        0.0010604806
        2.9500721252        3.0562855905        2.0023511694 m 1 1 1 v       -0.0001785627        0.0003433826        0.0012968725
        2.7512424689        3.1191270987        3.9071915283 m 1 1 1 v       -0.0004793146       -0.0005052834       -0.0019131916
        3.1866896709        0.8820282571        3.3470892233 m 1 1 1 v       -0.0002665105       -0.0012491680       -0.0004983682
        1.6486814617        1.4147336796        1.1360400739 m 1 1 1 v        0.0005282056       -0.0013649225        0.0008662838
        0.7131997809        2.4906047317        1.6375064243 m 1 1 1 v       -0.0000105362        0.0012901972       -0.0000065421
        0.5200362441        3.5711491454        3.7074675604 m 1 1 1 v       -0.0001343032       -0.0016416641       -0.0006676954
