ATOMIC_SPECIES
Si 28.085 Si_ONCV_PBE-1.0.upf upf201
C 12.011 C_ONCV_PBE-1.0.upf upf201

NUMERICAL_ORBITAL
Si_gga_9au_100Ry_3s3p2d.orb
C_gga_9au_100Ry_3s3p2d.orb

LATTICE_CONSTANT
1.88972612546

LATTICE_VECTORS
8.66882002791 0 0 #latvec1
-0.128476702403 8.68926624052 0 #latvec2
-0.187389917043 -0.233926021649 8.59243898398 #latvec3

ATOMIC_POSITIONS
Cartesian

Si #label
0 #magnetism
32 #number of atoms
3.22108470134  1.06689004501  3.32409427779  m  1  1  1  v  -0.000159845695388  -5.14759416189e-05  0.000126317964622
3.16758230687  1.02055604866  7.65527060517  m  1  1  1  v  -3.70431099293e-05  3.96443503697e-05  -0.000224362979276
3.1987549482  5.40565136088  3.36715584102  m  1  1  1  v  0.000233309227532  -2.87463953022e-05  -0.000235574580824
3.11303298579  5.34817353526  7.71373107604  m  1  1  1  v  -0.000195213683668  -7.00850582395e-05  -1.24479100082e-05
7.55689948818  1.10977519834  3.35854594235  m  1  1  1  v  8.71768213332e-06  5.59432318908e-05  -5.92519617007e-05
7.51094596972  1.03210292398  7.70954118745  m  1  1  1  v  0.000151120804881  -0.000257061887583  3.71204069033e-05
7.52095617498  5.4312544252  3.42446831356  m  1  1  1  v  0.000147624578844  -0.000169456556685  -0.00017679756298
7.50136445386  5.40071931771  7.73754181869  m  1  1  1  v  0.000132376409119  0.000130414545448  -8.79300502366e-05
3.21474014443  3.2761047079  1.17684413981  m  1  1  1  v  -0.000237406538501  0.000200301868326  0.000156015938793
3.17746788138  3.20897345179  5.52377858756  m  1  1  1  v  4.57232797263e-05  -0.000155677440937  0.000162938976117
3.17612842385  7.60838443583  1.24064195682  m  1  1  1  v  0.000141358831192  1.56574175615e-05  -0.000210367624144
3.15995020309  7.56349968126  5.57147044205  m  1  1  1  v  -8.13490256546e-05  -1.45475730478e-05  0.000165456475824
7.56708947231  3.29660372694  1.19691448677  m  1  1  1  v  5.73994470158e-05  -9.77752252275e-05  -0.00016738177416
7.52705284914  3.2435806438  5.56337849099  m  1  1  1  v  0.000142146019639  2.92860060974e-05  8.45465637581e-05
7.537949883  7.63459218326  1.27974059893  m  1  1  1  v  -0.000163634494809  -0.000283521788399  0.000130993525027
7.50228874646  7.58538360765  5.62568657743  m  1  1  1  v  0.000103440583749  0.000187385978438  -0.000132297490819
1.08069994105  1.10346784826  1.11700470219  m  1  1  1  v  0.000167159668345  2.24498395997e-05  7.78667656231e-05
1.00076822962  1.03795468357  5.48027178044  m  1  1  1  v  3.17601413185e-06  0.00016310320737  -0.000119777534886
1.00649775689  5.43341032788  1.1864354661  m  1  1  1  v  -7.49898065761e-05  -7.02616324065e-05  9.55352688669e-05
0.988309857647  5.383672028  5.52554487512  m  1  1  1  v  5.70287803563e-05  -3.15018141825e-05  -7.56603489283e-05
5.41510251283  1.12289020145  1.17087980919  m  1  1  1  v  -0.000112831290229  9.69512864874e-05  0.00026020013409
5.38346278535  1.04884202823  5.49012722943  m  1  1  1  v  1.51564792021e-05  3.59601664077e-05  -8.16535949782e-05
5.39112946789  5.44748734544  1.21218802084  m  1  1  1  v  0.00020058237911  9.24469374302e-05  -0.000184779883229
5.32518929938  5.41400627764  5.58183608482  m  1  1  1  v  1.58449020464e-05  -9.33136445824e-05  0.000155650667461
1.0195321918  3.24161225412  3.31780904509  m  1  1  1  v  -0.000209203155832  8.48518737895e-05  0.000225891802333
0.974420520252  3.16636601988  7.67511768194  m  1  1  1  v  -8.29525939347e-05  -0.000134652467051  5.48045590124e-05
0.986603542182  7.58906604417  3.35922138337  m  1  1  1  v  -0.000181822047699  3.10224385275e-05  8.36191715589e-05
0.957135137982  7.50969640314  7.71858110698  m  1  1  1  v  0.000184731764482  1.63589825693e-05  -0.000124712434679
5.38443783194  3.24001302713  3.3615245219  m  1  1  1  v  4.31158664505e-05  -9.61587793004e-05  0.000129543336754
5.32324384611  3.19906966755  7.69475789682  m  1  1  1  v  -0.000218563816915  -6.77017867296e-05  6.96198007162e-05
5.34949677752  7.60309255254  3.40937965669  m  1  1  1  v  2.65533457155e-05  0.000160215526333  0.000173926773725
5.28860778932  7.54677417019  7.75880889558  m  1  1  1  v  -5.35741841513e-05  -0.000155292704821  -0.000137250823224

C #label
0 #magnetism
32 #number of atoms
0.0497918571982  0.0734376145617  0.106541603873  m  1  1  1  v  -0.000237768846806  5.46364244974e-05  -1.04378818421e-05
-0.00160879815112  0.00477734725149  4.4328709225  m  1  1  1  v  -5.34447999819e-05  7.97965090629e-05  -0.000172499033661
-0.0131700120341  4.39411462191  0.150172211602  m  1  1  1  v  -0.000267935460158  0.000281951745248  -3.02768411252e-05
-0.034562507384  4.32595410934  4.50585592414  m  1  1  1  v  -3.1415736678e-06  0.000131356076349  0.000206333965743
4.33163822438  0.0582352601235  0.0659675839953  m  1  1  1  v  0.000172926331186  0.000370210611747  0.000351592225311
4.31444672402  -0.0330693704175  4.41126248468  m  1  1  1  v  0.000246533983663  0.000134881290787  0.000277154868136
4.29608691212  4.38833877889  0.103382701932  m  1  1  1  v  0.00010343638863  -0.000282990150022  0.000164115227191
4.25761156245  4.31123670779  4.43859907203  m  1  1  1  v  -0.000210649241234  -0.000109322934358  3.47620540401e-05
-0.0454721407957  2.22005470476  2.29005912212  m  1  1  1  v  -9.2627401372e-05  -0.000120165921699  0.000218049022773
-0.080834386937  2.1336230954  6.63904868205  m  1  1  1  v  0.000169381135167  -0.000173431261146  8.84774937375e-06
-0.0439879205876  6.5435146967  2.34560737425  m  1  1  1  v  -2.17191421776e-05  0.000104696409133  -0.000412866482349
-0.0706466334792  6.49038172314  6.70544865584  m  1  1  1  v  -5.48388680589e-05  -0.000420959057823  0.00017922901909
4.30212375889  2.16482878975  2.27299242015  m  1  1  1  v  -0.000140241792523  -0.000114146735721  1.83346858416e-05
4.25539936049  2.09620553547  6.55527465879  m  1  1  1  v  -0.000165111398121  -6.81861836838e-05  -0.000280239355125
4.28384865805  6.49902556947  2.3009290926  m  1  1  1  v  -0.000421456860734  7.66777597504e-05  4.07059697467e-05
4.2220371276  6.45908768601  6.64502983821  m  1  1  1  v  0.000355345180043  -0.000200694071835  0.000192714422158
2.14862009527  -0.0221346333682  2.22209014181  m  1  1  1  v  0.000137273957919  0.000404624171957  0.000407696607497
2.09412555826  -0.0427993110748  6.54609883642  m  1  1  1  v  -0.000247703598806  0.000115349542934  -0.000194181592443
2.11119923675  4.33044738764  2.28880673432  m  1  1  1  v  -0.000241476545422  6.00039003556e-05  0.000169809000153
2.07564243535  4.28242817574  6.57425648094  m  1  1  1  v  1.34775477559e-05  0.000213906702753  -0.000419065521974
6.5076392028  0.0386695144918  2.25136856789  m  1  1  1  v  7.33275729008e-05  0.000234785977905  0.000225517350692
6.47971707121  -0.0572397310013  6.58451845387  m  1  1  1  v  0.000183928368166  -0.000250721927573  -0.000142419594075
6.48631390517  4.36845975996  2.31496402998  m  1  1  1  v  -5.58496299769e-05  7.78056155561e-05  0.000179575837382
6.40018503829  4.31661802015  6.65751168345  m  1  1  1  v  2.00569081844e-05  -0.000105461270686  9.35188635679e-05
2.16318975871  2.20673022344  0.0475368236415  m  1  1  1  v  -0.000300336672794  1.06799523138e-05  -0.000265324141625
2.12392525195  2.11775979987  4.39948971873  m  1  1  1  v  0.000216507152597  -0.000143229315621  -2.66852222569e-05
2.11577951271  6.54176352231  0.103720176844  m  1  1  1  v  -7.38513101662e-05  -5.19116262694e-06  -9.41402918192e-05
2.06784410643  6.47835972459  4.43785197683  m  1  1  1  v  -0.000183404944848  0.000227379079975  -8.1398751417e-06
6.49362631884  2.21243037042  0.114445086682  m  1  1  1  v  9.64482942742e-05  1.72761499373e-05  5.04149228182e-05
6.45113438582  2.16676601337  4.43355937743  m  1  1  1  v  -0.000204013291236  -6.1417615985e-06  0.000262382671123
6.45485240198  6.56785099321  0.181230031263  m  1  1  1  v  -0.00012718974408  9.94573551521e-05  6.23570480712e-06
6.43865366648  6.5006574033  4.51628885234  m  1  1  1  v  2.37698940276e-05  0.000276176105652  -0.000295411777285
