ATOMIC_SPECIES
Fe 55.845 ./Fe_ONCV_PBE-1.0.upf

NUMERICAL_ORBITAL
./Fe_gga_9au_100Ry_4s2p2d1f.orb

LATTICE_CONSTANT
1.88972

LATTICE_VECTORS
  4.2600000  -4.2600000  -4.2600000
 -4.2600000   4.2600000  -4.2600000
 -4.2600000  -4.2600000   4.2600000

ATOMIC_POSITIONS
Direct

Fe
5.0
27
  0.0000000   0.0000000   0.0000000 1 1 1
  0.0000000   0.0000000   0.3333333 1 1 1
  0.0000000   0.0000000   0.6666667 1 1 1
  0.0000000   0.3333333   0.0000000 1 1 1
  0.0000000   0.3333333   0.3333333 1 1 1
  0.0000000   0.3333333   0.6666667 1 1 1
  0.0000000   0.6666667   0.0000000 1 1 1
  0.0000000   0.6666667   0.3333333 1 1 1
  0.0000000   0.6666667   0.6666667 1 1 1
  0.3333333   0.0000000   0.0000000 1 1 1
  0.3333333   0.0000000   0.3333333 1 1 1
  0.3333333   0.0000000   0.6666667 1 1 1
  0.3333333   0.3333333   0.0000000 1 1 1
  0.3333333   0.3333333   0.3333333 1 1 1
  0.3333333   0.3333333   0.6666667 1 1 1
  0.3333333   0.6666667   0.0000000 1 1 1
  0.3333333   0.6666667   0.3333333 1 1 1
  0.3333333   0.6666667   0.6666667 1 1 1
  0.6666667   0.0000000   0.0000000 1 1 1
  0.6666667   0.0000000   0.3333333 1 1 1
  0.6666667   0.0000000   0.6666667 1 1 1
  0.6666667   0.3333333   0.0000000 1 1 1
  0.6666667   0.3333333   0.3333333 1 1 1
  0.6666667   0.3333333   0.6666667 1 1 1
  0.6666667   0.6666667   0.0000000 1 1 1
  0.6666667   0.6666667   0.3333333 1 1 1
  0.6666667   0.6666667   0.6666667 1 1 1

