ATOMIC_SPECIES
Si 28.085 Si_ONCV_PBE-1.0.upf upf201
C 12.011 C_ONCV_PBE-1.0.upf upf201

NUMERICAL_ORBITAL
Si_gga_9au_100Ry_3s3p2d.orb
C_gga_9au_100Ry_3s3p2d.orb

LATTICE_CONSTANT
1.88972612546

LATTICE_VECTORS
9.01653095727 0 0 #latvec1
-4.63221741656 7.84448127566 0 #latvec2
-0.0261821794106 0.273930671718 9.88418978633 #latvec3

ATOMIC_POSITIONS
Cartesian

Si #label
0 #magnetism
36 #number of atoms
-0.00637605485762  1.82206201492  2.49521879108  m  1  1  1  v  0.000140415770009  0.000300926676557  -0.000140002788241
3.02535738809  7.13872506351  2.42917878689  m  1  1  1  v  0.000249027604525  0.000100029869133  -0.000225323836778
-3.12476213829  7.09001799191  2.4144593388  m  1  1  1  v  0.000206695321885  -1.83773097276e-06  0.000173548300449
4.52262547154  6.29500189122  4.95433467042  m  1  1  1  v  -0.000112158476482  -1.75180255103e-05  -1.20616307133e-05
1.5083888827  0.983431173867  5.02662264932  m  1  1  1  v  -4.61905100448e-05  2.99915539685e-06  9.61336814097e-05
7.64534877333  1.03478751708  5.03656736563  m  1  1  1  v  -0.000150301918453  1.78261461969e-05  3.16657213848e-05
-0.0143590088  1.88104640699  7.54285318702  m  1  1  1  v  0.000305504349975  1.41854478644e-06  8.98317365015e-05
2.98830492778  7.2230588606  7.46022820753  m  1  1  1  v  -6.51141705732e-05  -0.000324574876796  -2.65077385311e-05
-3.12686986944  7.18334368564  7.47285409568  m  1  1  1  v  -6.63535618316e-05  0.00013817855769  0.000258095244357
4.53356903135  6.10470085752  0.110087770595  m  1  1  1  v  -0.000235897684664  -0.000181878439423  5.83537766424e-05
1.52644065953  0.766761193536  0.161121515559  m  1  1  1  v  -6.02702094016e-05  0.000295950036943  -4.57891951566e-07
7.67709483198  0.814825805481  0.163843852084  m  1  1  1  v  2.79600266835e-05  0.000190615724395  -0.000176798854518
-1.57689094903  4.45104508426  2.47395388447  m  1  1  1  v  0.00021264638481  4.99724929729e-05  0.000198538036998
1.49424723879  4.49803728597  2.47095192821  m  1  1  1  v  -3.78283158484e-05  -7.11273285184e-05  0.00017514545624
-0.0532176952049  7.11504362395  2.4123936508  m  1  1  1  v  -6.08073992487e-05  0.000176080471798  0.000196323302021
6.096445045  3.65581322291  5.01352167425  m  1  1  1  v  4.71281128178e-06  -0.000252436663008  -0.000122402460873
3.02571370138  3.63536976628  4.98157598457  m  1  1  1  v  -0.000234650451073  5.03752482014e-05  -0.000155787970547
4.57837522378  0.994841207648  5.0281969482  m  1  1  1  v  -0.000161075926288  -1.19039321433e-05  -0.000125197847738
-1.58191398774  4.53207342609  7.48851200691  m  1  1  1  v  -0.000139383153476  0.00022018594612  3.92188212979e-05
1.50221672679  4.55527400554  7.49181040164  m  1  1  1  v  5.50891549626e-05  -2.68343196661e-05  0.000192408386304
-0.060792591427  7.20441547602  7.4607905912  m  1  1  1  v  0.000159396886929  0.000199064705395  0.000148423861638
6.10410422113  3.44340199507  0.129550017624  m  1  1  1  v  -0.000156587627729  -2.83364295994e-05  -2.20620947067e-05
3.0619937239  3.4292244064  0.137227623232  m  1  1  1  v  6.14223016265e-05  -0.00016737308725  -1.6823953245e-05
4.62332602079  0.803103010569  0.1573581458  m  1  1  1  v  -9.61055686709e-05  0.000125539586323  -6.02363077125e-05
3.04970649565  1.84476587745  2.49927465163  m  1  1  1  v  9.53988422414e-05  -0.000278282011487  0.000220693161242
6.09339103578  1.86613782124  2.49712975013  m  1  1  1  v  0.000247139319471  9.7374130634e-05  -4.15375170201e-06
4.54961314861  4.50613535693  2.46522140915  m  1  1  1  v  0.000126022413658  0.000173368645797  4.35172672624e-05
1.49391192504  6.28996000914  4.94140354343  m  1  1  1  v  -4.26724109262e-05  2.60361941467e-05  -1.16137656023e-06
-1.58422723987  6.26074915921  4.94051218427  m  1  1  1  v  0.000186535640244  0.000165781983139  -0.000137260520581
-0.0259205926814  3.62375674123  4.98249451755  m  1  1  1  v  -0.000117069956709  0.000221632584475  -0.000157237816339
3.03224810321  1.88924757105  7.5361858561  m  1  1  1  v  -0.00024625915626  5.90515114046e-05  7.58744876634e-05
6.12786837651  1.93817583311  7.53853437448  m  1  1  1  v  0.00019307708597  -6.13142755447e-05  6.03369342007e-05
4.5530986771  4.57728279536  7.4984203606  m  1  1  1  v  -0.000113978810792  -8.3684618881e-06  0.000216059684959
1.50027968493  6.0729896716  0.0790452497127  m  1  1  1  v  -5.2439339841e-05  -8.00523871845e-05  -3.85525721709e-05
-1.57173372062  6.06096437008  0.0915595748275  m  1  1  1  v  -4.16334200337e-05  6.05287744955e-06  1.75397091469e-05
-0.0052132212133  3.41294902445  0.111904177995  m  1  1  1  v  0.000152750618097  -5.75687981324e-05  -0.000213786953449

C #label
0 #magnetism
36 #number of atoms
-0.0158656705998  1.85976855528  4.37567398383  m  1  1  1  v  0.000306502389079  0.0001351807488  -8.70694455837e-06
2.98894402552  7.15239170022  4.28711553528  m  1  1  1  v  0.000239725154369  2.05039959662e-05  -0.000391371037394
-3.10772861256  7.1554831022  4.30660372228  m  1  1  1  v  -0.000214102447364  0.000299137220018  0.000302134695573
4.54759031536  6.30516131264  6.8160700056  m  1  1  1  v  -0.000112587681611  -0.000419462839503  0.000144906373735
1.52006414883  1.01943102939  6.89624818392  m  1  1  1  v  -0.000234706007411  -0.000223912229654  -0.0002917936707
7.6381342442  1.04831138686  6.88812517895  m  1  1  1  v  -0.000217618126771  -0.000445211475854  8.37140524603e-05
-0.033468800838  1.91176377526  9.4169448876  m  1  1  1  v  0.000113475947596  -2.95533633239e-05  7.74179876426e-05
2.99022785191  7.22684466872  9.33429788562  m  1  1  1  v  -0.000189566470406  0.000302689948304  2.33848851279e-05
-3.10889826873  7.20882680525  9.33981042343  m  1  1  1  v  0.000390822419882  0.000240945939394  1.13045238607e-05
4.53754838053  6.22732210042  1.83930280244  m  1  1  1  v  -0.000201601248058  -8.72870707864e-05  0.000493411841712
1.52182898629  0.951467026454  1.89957110207  m  1  1  1  v  0.000164782925477  0.000189817597505  7.23684207636e-05
7.63902755714  0.991467357578  1.91361601528  m  1  1  1  v  6.91745997085e-05  -0.000151144758087  5.73937925415e-05
-1.57819435565  4.47474043075  4.32861182586  m  1  1  1  v  -0.000144979982989  -0.000335696524303  -0.000164205564827
1.48537383229  4.52534716004  4.3201679755  m  1  1  1  v  -0.000435337960975  8.49117920226e-05  -9.42906449686e-06
-0.0639276342266  7.14830259179  4.32496036166  m  1  1  1  v  0.000215716514735  -0.000168273680453  -0.000322552228541
6.07607869571  3.70379113749  6.88109387246  m  1  1  1  v  -0.000177660731997  0.000166093865277  -0.000308035936642
3.01446226634  3.64431232647  6.86321524751  m  1  1  1  v  8.33420656555e-05  -0.000255903518352  0.000139931511467
4.59463405769  1.03533491585  6.884838616  m  1  1  1  v  0.000195117887327  0.000113763126873  -5.09630216228e-05
-1.58384165287  4.54735396704  9.37146740135  m  1  1  1  v  -0.000179211143976  -6.41719621693e-05  -0.000369175958959
1.48945249052  4.58294878741  9.35709191011  m  1  1  1  v  0.000251423077308  0.000266514268483  0.000147704125957
-0.07170872943  7.20306338205  9.36036907101  m  1  1  1  v  0.000181139127378  -8.69756894502e-05  0.000284981380282
6.08964958488  3.60755427495  1.85677259136  m  1  1  1  v  7.62277444139e-05  3.3625490136e-05  -0.000256426669565
3.05125798491  3.58478481623  1.86364597134  m  1  1  1  v  0.000220653747309  -0.000145019875943  -0.0001168953449
4.60206284101  0.949012704467  1.90928076972  m  1  1  1  v  6.01257798444e-05  -3.1177338456e-05  -7.51844452982e-05
3.05851640308  1.87467054578  4.38082752554  m  1  1  1  v  1.76198142053e-05  0.000102472067414  -0.000251459937216
6.12793248376  1.86839050128  4.37608575312  m  1  1  1  v  0.000179826746344  5.21737429547e-05  2.34082683795e-05
4.58602799638  4.54084743463  4.34134859062  m  1  1  1  v  -8.50257647311e-05  6.88325037067e-05  -0.000257805903745
1.4964899187  6.29940654981  6.8682880707  m  1  1  1  v  6.14251723782e-05  -0.000200754469245  0.000256036451098
-1.60040059023  6.28687744891  6.84681444055  m  1  1  1  v  5.99866984318e-05  8.9073685064e-06  0.000164391508338
-0.0249607742912  3.6410029807  6.87231974257  m  1  1  1  v  0.000222911888426  -0.000246082417457  -4.80022861923e-05
3.02379157355  1.93493014753  9.41395085044  m  1  1  1  v  -0.000128728280093  -8.93621846467e-05  -0.00014260933584
6.1085688061  1.93193376418  9.40791077222  m  1  1  1  v  0.00014222121804  -0.000382592353489  -3.43055193699e-05
4.55612965133  4.59502006074  9.38354661459  m  1  1  1  v  -0.000188916573449  -0.00017406029986  0.00030349017897
1.49099506291  6.22480525554  1.84054312284  m  1  1  1  v  0.000118297572777  -7.52009011092e-05  0.000285076702136
-1.57058909617  6.18490728148  1.86248185888  m  1  1  1  v  -1.38402839089e-05  -3.68059133061e-05  0.000385049638902
-0.0260878489984  3.57143147786  1.85289516165  m  1  1  1  v  -0.000244914990408  0.000172660991505  -3.25428428413e-05
