ATOMIC_SPECIES
Si 28.085 Si_ONCV_PBE-1.0.upf upf201
C 12.011 C_ONCV_PBE-1.0.upf upf201

NUMERICAL_ORBITAL
Si_gga_9au_100Ry_3s3p2d.orb
C_gga_9au_100Ry_3s3p2d.orb

LATTICE_CONSTANT
1.88972612546

LATTICE_VECTORS
9.01653095727 0 0 #latvec1
-4.63221741656 7.84448127566 0 #latvec2
-0.0261821794106 0.273930671718 9.88418978633 #latvec3

ATOMIC_POSITIONS
Cartesian

Si #label
0 #magnetism
36 #number of atoms
-0.0205514131396  1.79983764641  2.48842349651  m  1  1  1  v  2.08222112447e-05  -5.34848695057e-06  1.34555746122e-05
3.01694568353  7.14980731981  2.42508463672  m  1  1  1  v  8.80550339023e-06  -1.47003972316e-05  2.75078094137e-05
-3.12830633563  7.09754543149  2.40970999386  m  1  1  1  v  -5.13704579227e-05  1.41017324051e-05  -1.22500325592e-05
4.54412767867  6.30742256588  4.95199396705  m  1  1  1  v  5.06210832341e-05  -5.44693153308e-05  3.69179263889e-06
1.51777437838  0.971909822637  5.02654684093  m  1  1  1  v  1.45510166814e-05  3.88272604189e-05  -2.83786180457e-05
7.66625098616  1.01860700652  5.02672026423  m  1  1  1  v  3.19016495298e-07  -5.67690194237e-06  5.60940028368e-06
-0.0177792524675  1.87773018303  7.53549606559  m  1  1  1  v  -3.59402677604e-05  -4.7374172969e-06  -8.39284815119e-07
3.00043002333  7.22286846005  7.46343382043  m  1  1  1  v  2.41853717426e-05  2.49994627707e-05  -4.10585253683e-05
-3.13603402119  7.17491756402  7.45612779339  m  1  1  1  v  4.91735204922e-05  1.34704857126e-05  -2.21277793633e-06
4.56077495958  6.10625551969  0.110604882843  m  1  1  1  v  4.51656259477e-06  -1.56630651859e-05  2.29569199702e-05
1.54105879229  0.764139554538  0.175058984897  m  1  1  1  v  -3.60673516164e-06  4.31457733531e-05  -7.86229155721e-06
7.67734780078  0.81317099095  0.179559854531  m  1  1  1  v  1.52729539727e-05  -3.04159189209e-05  -2.5113218204e-05
-1.57414347229  4.44680138271  2.45712150219  m  1  1  1  v  -6.1575338024e-06  -1.85475888336e-05  -2.91298305641e-05
1.49061013073  4.49156699516  2.46457082542  m  1  1  1  v  6.82219232602e-06  2.35216016119e-05  -9.81867343464e-06
-0.0441202349863  7.12451321713  2.42749980471  m  1  1  1  v  -9.31283028812e-06  -1.4861185074e-05  -4.55236308994e-05
6.10346242015  3.66922639554  5.00554326221  m  1  1  1  v  -1.31307426207e-07  -1.28883568417e-05  3.20378699329e-05
3.02669933881  3.64089813764  4.98896610322  m  1  1  1  v  -3.57207413218e-06  5.65397935133e-05  -1.06519198904e-06
4.58681598735  0.990051282928  5.0188664204  m  1  1  1  v  -2.18821980159e-05  7.66364199516e-07  1.65814596405e-05
-1.58066511793  4.51702764046  7.47341388966  m  1  1  1  v  6.00738108406e-07  7.63174208248e-06  -2.47717324543e-05
1.49352716521  4.54659349428  7.49014782351  m  1  1  1  v  1.7587874155e-05  3.70421200359e-05  -3.70673936403e-05
-0.061401381912  7.19024416264  7.4550371123  m  1  1  1  v  5.3533948387e-06  -1.94670914353e-05  -6.11241697166e-06
6.12027523802  3.4542282156  0.142023324146  m  1  1  1  v  1.8244697657e-05  2.82925424105e-05  -1.48488975351e-05
3.05509157198  3.43274086885  0.137930367842  m  1  1  1  v  -1.37193485462e-05  1.24263692237e-05  -2.94349873755e-05
4.61489613165  0.792667835119  0.173948504457  m  1  1  1  v  2.66233922009e-05  1.69441610939e-05  5.69915681345e-07
3.0507937133  1.8301718734  2.48732671413  m  1  1  1  v  2.58302585565e-06  2.65374634387e-05  -4.88169442525e-06
6.10906001454  1.85945457787  2.48563980482  m  1  1  1  v  1.23301498859e-05  -6.6101623716e-06  2.91507443929e-05
4.55990857099  4.50192470964  2.46313904166  m  1  1  1  v  -7.94985273518e-07  1.85029206306e-05  -4.40263366491e-06
1.48256838978  6.28544072524  4.94652986054  m  1  1  1  v  -4.57363578911e-05  5.29439844793e-05  -2.59179792814e-05
-1.58634145305  6.26272119573  4.93646406218  m  1  1  1  v  1.28455016267e-05  -3.38609726261e-05  2.37431330036e-05
-0.037420018887  3.61960097656  4.9855728812  m  1  1  1  v  -2.49032512124e-05  -3.9395597677e-06  -4.0296572377e-05
3.04520983537  1.89286995924  7.53303120675  m  1  1  1  v  -2.88074898566e-05  -1.177375606e-05  3.40952242417e-05
6.12947337336  1.9267036264  7.54153514333  m  1  1  1  v  -6.10086977136e-05  2.73674370865e-06  3.91217072301e-05
4.55279679579  4.57273191348  7.49684518763  m  1  1  1  v  3.16797747136e-05  -2.13812044224e-05  3.20890412082e-05
1.49341020752  6.08080782583  0.0934607576575  m  1  1  1  v  -2.54901981885e-05  -1.6014034434e-05  -2.73751988562e-05
-1.56730061322  6.0576365476  0.107885955995  m  1  1  1  v  5.05569824879e-06  -3.46447231809e-05  -1.99980436516e-05
-0.0156552078144  3.41052520229  0.126671819992  m  1  1  1  v  4.44762661357e-06  -5.48247991553e-06  4.95554440045e-06

C #label
0 #magnetism
36 #number of atoms
-0.0216127040858  1.8316410286  4.37607821816  m  1  1  1  v  -3.45923957259e-05  2.31947392564e-05  -2.78639326482e-05
3.00385038175  7.18288281265  4.31261074948  m  1  1  1  v  -6.29539355816e-06  -2.27555423688e-05  -2.3092418558e-05
-3.11671258508  7.13510043691  4.30862602865  m  1  1  1  v  2.49761263203e-05  2.88595732134e-05  9.06693765834e-07
4.54448852796  6.32643325456  6.8392612467  m  1  1  1  v  1.28495588891e-06  3.02695879223e-05  4.78883536891e-05
1.51854345493  0.996237030483  6.91354604674  m  1  1  1  v  -6.00497084141e-06  -2.85653333107e-05  -8.24729123228e-06
7.65451128767  1.05106567501  6.93054222016  m  1  1  1  v  4.3819650622e-05  2.05454783474e-05  5.7519950912e-05
-0.0294854367333  1.9145803404  9.42274919857  m  1  1  1  v  6.4663973941e-06  -4.42216575238e-05  -4.57011079404e-05
2.99370375977  7.23228871961  9.34949165468  m  1  1  1  v  -2.15743502958e-05  -7.66476759401e-05  2.7788686913e-05
-3.13736090775  7.19469162403  9.33839269447  m  1  1  1  v  7.94339240274e-05  -4.84710844697e-05  9.5541151639e-06
4.54789794381  6.26098997858  1.82477016314  m  1  1  1  v  -3.2330166362e-05  1.09733071286e-05  6.07247172409e-05
1.52071513194  0.929371873422  1.87251571806  m  1  1  1  v  4.08331703428e-07  4.2447731878e-05  5.07380830409e-05
7.67506012698  0.983301477717  1.89455631942  m  1  1  1  v  1.99204204328e-05  6.17470375692e-06  3.61194500694e-07
-1.57657440438  4.4784143491  4.34441692106  m  1  1  1  v  7.41341011426e-05  2.11513898427e-06  -1.56532505777e-05
1.5031947186  4.49287052091  4.35016696456  m  1  1  1  v  5.82099065719e-06  3.25707082865e-05  -5.10475635618e-05
-0.0618983260451  7.14683478637  4.31092571169  m  1  1  1  v  1.64812962036e-05  -4.67928482166e-05  4.29393618875e-05
6.09957580344  3.69203795273  6.88516415239  m  1  1  1  v  -4.86064611245e-05  -2.46948308442e-05  -4.62065171308e-05
3.02449903354  3.66632213593  6.87073823005  m  1  1  1  v  -3.26664090176e-05  1.13089011225e-05  -4.85603418362e-05
4.59863259868  1.01767365421  6.91489092583  m  1  1  1  v  1.78975427945e-05  3.88426838035e-06  1.68082798518e-05
-1.5806246514  4.54941305574  9.3815482753  m  1  1  1  v  -7.5791436763e-05  1.77636280098e-05  1.11371367816e-05
1.49000348397  4.56562973673  9.37141288017  m  1  1  1  v  -3.07957605584e-05  -2.59671471023e-05  9.34355141043e-05
-0.0734675336784  7.22507329197  9.34690607088  m  1  1  1  v  1.84011013175e-05  5.91290742065e-07  -1.9088776954e-05
6.10826962631  3.6125896644  1.84697189057  m  1  1  1  v  2.86626021822e-05  -6.24158857762e-05  3.97885790174e-05
3.03925643709  3.58914733144  1.85874781312  m  1  1  1  v  1.67668790751e-05  -1.5952689281e-05  7.71966184706e-05
4.58525383734  0.938009082107  1.88036998952  m  1  1  1  v  -1.52391268922e-05  -3.50497059733e-06  -7.72180734408e-05
3.05281171863  1.85542673216  4.38367072216  m  1  1  1  v  1.49619373817e-05  -3.02222885472e-05  2.47818291774e-06
6.11519350013  1.87583528145  4.38708294687  m  1  1  1  v  -2.4602340928e-05  -2.54120505301e-05  6.37272349724e-05
4.57441822406  4.52278002059  4.35717376367  m  1  1  1  v  4.75924329625e-05  4.70840044982e-05  -2.23257699486e-05
1.48487153662  6.30742460535  6.8407234671  m  1  1  1  v  -4.93671056398e-05  5.65543139957e-05  5.98335135065e-05
-1.59954570462  6.27354898948  6.8356378973  m  1  1  1  v  3.89978628582e-05  -3.1159385664e-05  2.32768776533e-05
-0.0372174332033  3.63231808764  6.87224587165  m  1  1  1  v  -3.89061135847e-05  2.41624980458e-05  7.0394117947e-06
3.03590086368  1.92254354167  9.42241854471  m  1  1  1  v  2.3461407892e-05  -4.56840597088e-05  6.14269478324e-07
6.10395792759  1.9525198448  9.42063897761  m  1  1  1  v  -4.13939429452e-05  -1.0535026747e-05  1.99978088189e-05
4.5576022624  4.59800556137  9.38568674701  m  1  1  1  v  3.34761223275e-06  -2.0306499026e-05  -3.42453865083e-05
1.48307698777  6.23758577263  1.81825347863  m  1  1  1  v  -1.90023527478e-05  6.25243107546e-05  6.97428300338e-05
-1.57589647403  6.21444287949  1.81465978891  m  1  1  1  v  3.04790471808e-05  -4.47570255169e-05  3.52521851059e-05
-0.0314016763183  3.56269043063  1.84901545993  m  1  1  1  v  -3.61640007638e-05  -1.8604412712e-05  -4.22262413575e-05
