ATOMIC_SPECIES
Si 28.085 Si_ONCV_PBE-1.0.upf upf201
C 12.011 C_ONCV_PBE-1.0.upf upf201

NUMERICAL_ORBITAL
Si_gga_9au_100Ry_3s3p2d.orb
C_gga_9au_100Ry_3s3p2d.orb

LATTICE_CONSTANT
1.88972612546

LATTICE_VECTORS
9.21924492352 0 0 #latvec1
-4.66663284802 7.96803073102 0 #latvec2
-0.295323939247 0.105479510926 10.0725515692 #latvec3

ATOMIC_POSITIONS
Cartesian

Si #label
0 #magnetism
36 #number of atoms
-0.0448365411954  1.82729655937  2.55189530319  m  1  1  1  v  2.08222112447e-05  -5.34848695057e-06  1.34555746122e-05
3.06400732316  7.25020476633  2.57542375299  m  1  1  1  v  8.80550339023e-06  -1.47003972316e-05  2.75078094137e-05
-3.18991252262  7.23657600026  2.47597147224  m  1  1  1  v  -5.13704579227e-05  1.41017324051e-05  -1.22500325592e-05
4.5962509895  6.36388572495  5.16359833766  m  1  1  1  v  5.06210832341e-05  -5.44693153308e-05  3.69179263889e-06
1.48559365397  0.930904991046  5.15005461394  m  1  1  1  v  1.45510166814e-05  3.88272604189e-05  -2.83786180457e-05
7.75311322298  0.962292699855  5.25544386312  m  1  1  1  v  3.19016495298e-07  -5.67690194237e-06  5.60940028368e-06
-0.122465428486  1.85187087242  7.70247258912  m  1  1  1  v  -3.59402677604e-05  -4.7374172969e-06  -8.39284815119e-07
2.9911531544  7.28394206019  7.7193162185  m  1  1  1  v  2.41853717426e-05  2.49994627707e-05  -4.10585253683e-05
-3.26002519554  7.26064384567  7.61998113817  m  1  1  1  v  4.91735204922e-05  1.34704857126e-05  -2.21277793633e-06
4.82524850304  6.29133975428  0.244800276629  m  1  1  1  v  4.51656259477e-06  -1.56630651859e-05  2.29569199702e-05
1.70985796139  0.856452693363  0.218530106644  m  1  1  1  v  -3.60673516164e-06  4.31457733531e-05  -7.86229155721e-06
7.97137313574  0.877192644086  0.312824063699  m  1  1  1  v  1.52729539727e-05  -3.04159189209e-05  -2.5113218204e-05
-1.61464185175  4.53398008244  2.5234610236  m  1  1  1  v  -6.1575338024e-06  -1.85475888336e-05  -2.91298305641e-05
1.51959431564  4.54399922562  2.56494829506  m  1  1  1  v  6.82219232602e-06  2.35216016119e-05  -9.81867343464e-06
-0.0678852478452  7.24082648524  2.52555504966  m  1  1  1  v  -9.31283028812e-06  -1.4861185074e-05  -4.55236308994e-05
6.16925699429  3.66409530515  5.20296872755  m  1  1  1  v  -1.31307426207e-07  -1.28883568417e-05  3.20378699329e-05
3.03075896916  3.65553225469  5.16377432003  m  1  1  1  v  -3.57207413218e-06  5.65397935133e-05  -1.06519198904e-06
4.61235898636  0.945972761224  5.19710435944  m  1  1  1  v  -2.18821980159e-05  7.66364199516e-07  1.65814596405e-05
-1.69291844978  4.54346334151  7.64602375987  m  1  1  1  v  6.00738108406e-07  7.63174208248e-06  -2.47717324543e-05
1.42976915286  4.57107516399  7.69761030472  m  1  1  1  v  1.7587874155e-05  3.70421200359e-05  -3.70673936403e-05
-0.135945384672  7.26855637522  7.66643839664  m  1  1  1  v  5.3533948387e-06  -1.94670914353e-05  -6.11241697166e-06
6.39820224214  3.58998794178  0.270697175413  m  1  1  1  v  1.8244697657e-05  2.82925424105e-05  -1.48488975351e-05
3.26440834511  3.57886242344  0.233287891638  m  1  1  1  v  -1.37193485462e-05  1.24263692237e-05  -2.94349873755e-05
4.83516251417  0.875179525362  0.262608598097  m  1  1  1  v  2.66233922009e-05  1.69441610939e-05  5.69915681345e-07
3.07798638928  1.8317158571  2.60727234814  m  1  1  1  v  2.58302585565e-06  2.65374634387e-05  -4.88169442525e-06
6.22298789736  1.83684593292  2.65159906804  m  1  1  1  v  1.23301498859e-05  -6.6101623716e-06  2.91507443929e-05
4.64288640014  4.55209462385  2.6132217123  m  1  1  1  v  -7.94985273518e-07  1.85029206306e-05  -4.40263366491e-06
1.46956097224  6.35733704448  5.12333492567  m  1  1  1  v  -4.57363578911e-05  5.29439844793e-05  -2.59179792814e-05
-1.65464606603  6.34402384506  5.0842295606  m  1  1  1  v  1.28455016267e-05  -3.38609726261e-05  2.37431330036e-05
-0.0929576691085  3.64994095397  5.10401461432  m  1  1  1  v  -2.49032512124e-05  -3.9395597677e-06  -4.0296572377e-05
3.01070556474  1.85931474255  7.73849008094  m  1  1  1  v  -2.88074898566e-05  -1.177375606e-05  3.40952242417e-05
6.14601674064  1.8837597617  7.78966658919  m  1  1  1  v  -6.10086977136e-05  2.73674370865e-06  3.91217072301e-05
4.57228444818  4.5742814328  7.75920519682  m  1  1  1  v  3.16797747136e-05  -2.13812044224e-05  3.20890412082e-05
1.67704455023  6.26935921978  0.200512564488  m  1  1  1  v  -2.54901981885e-05  -1.6014034434e-05  -2.73751988562e-05
-1.45094413111  6.26543308279  0.137891709385  m  1  1  1  v  5.05569824879e-06  -3.46447231809e-05  -1.99980436516e-05
0.12442024075  3.55066377815  0.173754737264  m  1  1  1  v  4.44762661357e-06  -5.48247991553e-06  4.95554440045e-06

C #label
0 #magnetism
36 #number of atoms
-0.0729262422684  1.83570670587  4.48299731569  m  1  1  1  v  -3.45923957259e-05  2.31947392564e-05  -2.78639326482e-05
3.04303593455  7.26159381234  4.50274692733  m  1  1  1  v  -6.29539355816e-06  -2.27555423688e-05  -2.3092418558e-05
-3.21825398421  7.2386218861  4.42170574666  m  1  1  1  v  2.49761263203e-05  2.88595732134e-05  9.06693765834e-07
4.57534062145  6.3737279817  7.10435492091  m  1  1  1  v  1.28495588891e-06  3.02695879223e-05  4.78883536891e-05
1.45849340094  0.953695770205  7.08190485634  m  1  1  1  v  -6.00497084141e-06  -2.85653333107e-05  -8.24729123228e-06
7.72495992175  0.959438163082  7.18080851357  m  1  1  1  v  4.3819650622e-05  2.05454783474e-05  5.7519950912e-05
-0.147142137622  1.86406325437  9.61669990682  m  1  1  1  v  6.4663973941e-06  -4.42216575238e-05  -4.57011079404e-05
2.96835224304  7.29953062843  9.63845868521  m  1  1  1  v  -2.15743502958e-05  -7.66476759401e-05  2.7788686913e-05
-3.30024360819  7.26204170942  9.55476476512  m  1  1  1  v  7.94339240274e-05  -4.84710844697e-05  9.5541151639e-06
4.6447198942  6.35417269436  1.96500031278  m  1  1  1  v  -3.2330166362e-05  1.09733071286e-05  6.07247172409e-05
1.53800466613  0.916062679253  1.94875157503  m  1  1  1  v  4.08331703428e-07  4.2447731878e-05  5.07380830409e-05
7.79553024001  0.949790177049  2.03803736033  m  1  1  1  v  1.99204204328e-05  6.17470375692e-06  3.61194500694e-07
-1.65364052229  4.53667284021  4.44548111255  m  1  1  1  v  7.41341011426e-05  2.11513898427e-06  -1.56532505777e-05
1.47880691153  4.53478628747  4.49286700571  m  1  1  1  v  5.82099065719e-06  3.25707082865e-05  -5.10475635618e-05
-0.0891939085027  7.24721995965  4.46428695932  m  1  1  1  v  1.64812962036e-05  -4.67928482166e-05  4.29393618875e-05
6.1420177436  3.67261879123  7.14068915389  m  1  1  1  v  -4.86064611245e-05  -2.46948308442e-05  -4.62065171308e-05
3.01085864995  3.65742574788  7.09122137566  m  1  1  1  v  -3.26664090176e-05  1.13089011225e-05  -4.85603418362e-05
4.5778296953  0.958390063173  7.13059147964  m  1  1  1  v  1.78975427945e-05  3.88426838035e-06  1.68082798518e-05
-1.72239332671  4.56286842178  9.5737728021  m  1  1  1  v  -7.5791436763e-05  1.77636280098e-05  1.11371367816e-05
1.40778292194  4.57642134307  9.63070586544  m  1  1  1  v  -3.07957605584e-05  -2.59671471023e-05  9.34355141043e-05
-0.166027480549  7.27624412943  9.60102155927  m  1  1  1  v  1.84011013175e-05  5.91290742065e-07  -1.9088776954e-05
6.22778562825  3.64530911766  2.00292173549  m  1  1  1  v  2.86626021822e-05  -6.24158857762e-05  3.97885790174e-05
3.08775661382  3.63555712441  1.94719078099  m  1  1  1  v  1.67668790751e-05  -1.5952689281e-05  7.71966184706e-05
4.65810315233  0.931383469902  1.99850986841  m  1  1  1  v  -1.52391268922e-05  -3.50497059733e-06  -7.72180734408e-05
3.06943058145  1.83851701417  4.54592634571  m  1  1  1  v  1.49619373817e-05  -3.02222885472e-05  2.47818291774e-06
6.18946930073  1.84609621991  4.5751693072  m  1  1  1  v  -2.4602340928e-05  -2.54120505301e-05  6.37272349724e-05
4.61862321377  4.56086866045  4.54731418677  m  1  1  1  v  4.75924329625e-05  4.70840044982e-05  -2.23257699486e-05
1.44333603582  6.36171946588  7.04373215968  m  1  1  1  v  -4.93671056398e-05  5.65543139957e-05  5.98335135065e-05
-1.70295028375  6.35981266054  7.00303140345  m  1  1  1  v  3.89978628582e-05  -3.1159385664e-05  2.32768776533e-05
-0.116276558233  3.64666195821  7.05040883728  m  1  1  1  v  -3.89061135847e-05  2.41624980458e-05  7.0394117947e-06
2.98143027216  1.86498409384  9.67530124324  m  1  1  1  v  2.3461407892e-05  -4.56840597088e-05  6.14269478324e-07
6.11569517392  1.87222103053  9.71785686821  m  1  1  1  v  -4.13939429452e-05  -1.0535026747e-05  1.99978088189e-05
4.5293599594  4.58086770245  9.67998035987  m  1  1  1  v  3.34761223275e-06  -2.0306499026e-05  -3.42453865083e-05
1.52684061622  6.34892574647  1.92709262642  m  1  1  1  v  -1.90023527478e-05  6.25243107546e-05  6.97428300338e-05
-1.60339268958  6.32623186943  1.86091940822  m  1  1  1  v  3.04790471808e-05  -4.47570255169e-05  3.52521851059e-05
-0.0442919866804  3.62198825686  1.90293765446  m  1  1  1  v  -3.61640007638e-05  -1.8604412712e-05  -4.22262413575e-05
