ATOMIC_SPECIES
Al 13 Al_ONCV_PBE-1.0.upf

LATTICE_CONSTANT
7.5858104409245675  // add lattice constant

LATTICE_VECTORS
5.000000000000      0.000000000000      0.000000000000    
0.000000000000      0.707106781187      0.000000000000    
0.000000000000      0.000000000000      0.707106781187    

ATOMIC_POSITIONS
Direct

Al
0.0
5
    0.000000000000      0.000000000000      0.000000000000    1 1 1
    0.100000000000      0.500000000000      0.500000000000    0 0 0
    0.200000000000      0.000000000000      0.000000000000    0 0 0
    0.300000000000      0.500000000000      0.500000000000    0 0 0
    0.400000000000      0.000000000000      0.000000000000    1 1 1