ATOMIC_SPECIES
Si 28.085 Si_ONCV_PBE-1.0.upf
C 12.011 C_ONCV_PBE-1.0.upf

LATTICE_CONSTANT
1.8897261254578281

LATTICE_VECTORS
9.292319154131645 0.0 0.0 
-4.759212952926557 8.28659453961566 0.0 
0.30359649280264356 0.049396808323646055 10.473648469679777 

ATOMIC_POSITIONS
Cartesian    # Cartesian(Unit is LATTICE_CONSTANT)
Si
0.0
36
0.024014999842 1.818680056110 2.557402102387 1 1 1
3.116573518845 7.250433373338 2.503546540534 1 1 1
-3.140857522224 7.210513645539 2.587286063319 1 1 1
4.720852122054 6.370529381524 5.050048204803 1 1 1
1.639035555200 0.923549017398 5.104429224518 1 1 1
7.908631482476 0.975156743430 5.031436062374 1 1 1
0.093294494814 1.834273357064 7.705156995342 1 1 1
3.198644534219 7.267496110655 7.649184140338 1 1 1
-3.056698374592 7.232824318747 7.735820711042 1 1 1
4.805159680913 6.379928511057 10.200864436801 1 1 1
1.710249649530 0.940333410240 10.246835076086 1 1 1
7.977471367384 0.977513409893 10.158295562370 1 1 1
-1.547968668212 4.523018076230 2.586001769089 1 1 1
1.580980422903 4.543658335044 2.534210374283 1 1 1
-0.012220688511 7.236136862293 2.548097827408 1 1 1
6.310066431059 3.670383338224 5.031624009315 1 1 1
3.164677612571 3.647735025069 5.087350599409 1 1 1
4.754328729474 0.943342682829 5.067175708671 1 1 1
-1.486248259931 4.518751835702 7.706236274431 1 1 1
1.631150501326 4.552119664873 7.667796987969 1 1 1
0.067326092950 7.248273611735 7.685619342523 1 1 1
6.396617561715 3.685177645256 10.165397814540 1 1 1
3.259503444718 3.656485106364 10.222075002489 1 1 1
4.836181175161 0.967340790328 10.199525950772 1 1 1
3.139507197064 1.836226194037 2.515493908790 1 1 1
6.288552872932 1.854819228012 2.477476759799 1 1 1
4.707272044034 4.554666992810 2.482320805872 1 1 1
1.590922525103 6.345136648458 5.095223859709 1 1 1
-1.523780013691 6.325349663226 5.154702024564 1 1 1
0.049679731968 3.632897984664 5.116992519875 1 1 1
3.235964957616 1.847231658204 7.658031301847 1 1 1
6.370303831385 1.881206229286 7.616044234987 1 1 1
4.785606810103 4.568439180356 7.636904422136 1 1 1
1.669026843179 6.346647186294 10.246064537626 1 1 1
-1.462410672918 6.333034618206 10.275792468570 1 1 1
0.114985590720 3.624764820445 10.259215803479 1 1 1
C
0.0
36
0.053012261927 1.822962857414 4.488768055349 1 1 1
3.155058363352 7.261098064088 4.432045824956 1 1 1
-3.110135212524 7.215252338676 4.534896048148 1 1 1
4.756325131628 6.364714008854 6.986072550395 1 1 1
1.660146025332 0.936304895914 7.041809458634 1 1 1
7.926101244585 0.968040915757 6.951961659538 1 1 1
0.124933514560 1.836376648509 9.621427731686 1 1 1
3.228004718433 7.284688375359 9.566540742457 1 1 1
-3.043544034232 7.232516775044 9.672798082152 1 1 1
4.685052863893 6.368677201263 1.849058566027 1 1 1
1.592072183855 0.916102572275 1.905702537539 1 1 1
7.853456909580 0.975447366205 1.809064272094 1 1 1
-1.536819139364 4.519793504981 4.504455316713 1 1 1
1.595927882909 4.527167663391 4.459985200761 1 1 1
0.020549066042 7.232913406326 4.484546822394 1 1 1
6.338554293048 3.674962576283 6.971120889969 1 1 1
3.203011183296 3.645065966469 7.008161702696 1 1 1
4.785023823833 0.957978205300 6.999650755985 1 1 1
-1.455158325379 4.529789957202 9.633658575743 1 1 1
1.675744241050 4.554273042457 9.598590683529 1 1 1
0.089890330754 7.247272758999 9.623542739127 1 1 1
6.267699960541 3.663265554518 1.826836102488 1 1 1
3.133911307435 3.644321229331 1.866808818443 1 1 1
4.713275883512 0.936337591735 1.868775514803 1 1 1
3.191890657989 1.835035010442 4.455701103791 1 1 1
6.307142501548 1.856430600837 4.398493288554 1 1 1
4.734462156030 4.564881240546 4.422544817448 1 1 1
1.620952129981 6.347680654548 7.010532590478 1 1 1
-1.521459739481 6.340265354030 7.072718287226 1 1 1
0.076917842591 3.626266192772 7.061200752840 1 1 1
3.252730476452 1.854430996332 9.584712191495 1 1 1
6.393909277663 1.868379085545 9.539538896509 1 1 1
4.799745179789 4.572975766062 9.558020796176 1 1 1
1.566868610701 6.353957794950 1.902823626849 1 1 1
-1.571105862666 6.317425536298 1.922948743780 1 1 1
0.006851519388 3.621835610223 1.916989745310 1 1 1

NUMERICAL_ORBITAL
Si_gga_9au_100Ry_3s3p2d.orb
C_gga_9au_100Ry_3s3p2d.orb
