ATOMIC_SPECIES
Si 28.085 Si_ONCV_PBE-1.0.upf
C 12.011 C_ONCV_PBE-1.0.upf

LATTICE_CONSTANT
1.8897261254578281

LATTICE_VECTORS
8.896031282544781 0.0 0.0 
0.04603279466555136 8.674624078249064 0.0 
-0.26373262356472865 -0.2606037386069864 8.956586903428478 

ATOMIC_POSITIONS
Cartesian    # Cartesian(Unit is LATTICE_CONSTANT)
Si
0.0
32
3.250387340830 1.038049805476 3.358998718991 1 1 1
3.180585045473 0.989114835818 7.741760804663 1 1 1
3.250431498333 5.424976569629 3.424812794409 1 1 1
3.197293849243 5.362486553520 7.827703460499 1 1 1
7.637293571957 1.020321529793 3.425125013452 1 1 1
7.584318029083 0.966578795761 7.822137395507 1 1 1
7.641293086196 5.422957352855 3.498794020802 1 1 1
7.593250397556 5.348566544979 7.855813964019 1 1 1
3.291148200898 3.267908450695 1.202302031052 1 1 1
3.216134744740 3.214673910966 5.594345557587 1 1 1
3.306399718746 7.659132155414 1.253745804680 1 1 1
3.243116103937 7.596726542133 5.638963773693 1 1 1
7.673506222157 3.259741245265 1.244056716104 1 1 1
7.611677656720 3.182569776707 5.654009897139 1 1 1
7.679568086190 7.659066123933 1.339474443903 1 1 1
7.633531787691 7.587327200593 5.732269452976 1 1 1
1.087232610599 1.076459098521 1.122690653413 1 1 1
1.026671434713 1.021971201068 5.523112754109 1 1 1
1.110954273736 5.477810219590 1.197827234288 1 1 1
1.038604468586 5.394436993664 5.590179047195 1 1 1
5.463532526675 1.061200983498 1.193960952110 1 1 1
5.411996409180 0.999695743650 5.584289408073 1 1 1
5.478728789275 5.456500237614 1.247503756840 1 1 1
5.444947309744 5.415849035205 5.653302488958 1 1 1
1.056432999353 3.247816907727 3.352941362309 1 1 1
0.998629248167 3.190119102426 7.753309006508 1 1 1
1.073300891298 7.640669877192 3.411635593171 1 1 1
1.019356007010 7.573858211390 7.820028684762 1 1 1
5.453668357741 3.224543978938 3.423319295449 1 1 1
5.381955378135 3.154650805316 7.806440250907 1 1 1
5.454271518515 7.621904699537 3.470487665944 1 1 1
5.394521242105 7.551718076689 7.870147328116 1 1 1
C
0.0
32
8.795889519741 -0.008228041172 0.127329270799 1 1 1
8.710279987836 -0.086522078845 4.518554971880 1 1 1
8.803124791885 4.362122837687 0.200346030137 1 1 1
8.726334278775 4.307551776170 4.588564084708 1 1 1
4.403259633100 -0.013991482901 0.056840350474 1 1 1
4.343596304449 -0.070170854215 4.463946269998 1 1 1
4.415472292498 4.377629829922 0.122784832699 1 1 1
4.336259592416 4.298866485168 4.535235741283 1 1 1
8.757236493705 2.142090569996 2.362991445827 1 1 1
8.691191873897 2.076575596380 6.743824156901 1 1 1
8.755015050981 6.525152440609 2.428044024117 1 1 1
8.709043791620 6.465380911120 6.805275762065 1 1 1
4.354951998228 2.138560057042 2.288232494629 1 1 1
4.307107950419 2.087709889101 6.672166364591 1 1 1
4.390323734209 6.538987118191 2.372698043416 1 1 1
4.296291435019 6.481754142711 6.755172654405 1 1 1
2.171005845978 -0.041001447328 2.241092948473 1 1 1
2.086353625767 -0.090463047910 6.623905259528 1 1 1
2.170173628187 4.349261428843 2.296399153092 1 1 1
2.118438703544 4.292044367359 6.680721538525 1 1 1
6.563237024954 -0.040655917278 2.282401507604 1 1 1
6.490423580693 -0.114756091854 6.684357454516 1 1 1
6.566393236122 4.333188847466 2.346720432762 1 1 1
6.497918460580 4.260052115378 6.747368177736 1 1 1
2.191008079090 2.184767819632 0.062797367353 1 1 1
2.139805777021 2.131565590787 4.453647583459 1 1 1
2.225031542162 6.571209878845 0.132740559799 1 1 1
2.146773698606 6.506586157637 4.510374217344 1 1 1
6.591613746979 2.176630273830 0.125144748530 1 1 1
6.527455371282 2.104772401687 4.524488512179 1 1 1
6.611960384706 6.562496766326 0.198444913230 1 1 1
6.531259941501 6.511794459011 4.592601595224 1 1 1

NUMERICAL_ORBITAL
Si_gga_9au_100Ry_3s3p2d.orb
C_gga_9au_100Ry_3s3p2d.orb
