ATOMIC_SPECIES
Rh 102.910 Rh_ONCV_PBE-1.0.upf
C 12.000 C_ONCV_PBE-1.0.upf
O 16.000 O_ONCV_PBE-1.0.upf

NUMERICAL_ORBITAL
Rh_gga_7au_100Ry_4s2p2d1f.orb
C_gga_7au_100Ry_2s2p1d.orb
O_gga_7au_100Ry_2s2p1d.orb

LATTICE_CONSTANT
1.8897261246257702

LATTICE_VECTORS
5.435333792425878 0.0 0.0 
5.435333792425878 9.414274284471617 0.0 
0.0 0.0 23.875862915174405 

ATOMIC_POSITIONS
Cartesian    # Cartesian(Unit is LATTICE_CONSTANT)
Rh
0.0
40
0.000000000000 0.000000000000 0.000000000000 1 1 1
2.717666896200 1.569045714400 2.218965729100 1 1 1
1.358833448100 0.784522856700 4.437931458300 1 1 1
10.870557434600 9.414117733600 6.652239837400 1 1 1
2.717677604400 1.568840205500 8.830107530400 1 1 1
1.358833448100 2.353568571100 0.000000000000 1 1 1
4.076500344300 3.922614285500 2.218965729100 1 1 1
2.717666896200 3.138091427800 4.437931458300 1 1 1
6.794093832000 2.353457034600 6.652329216700 1 1 1
4.076522558500 3.922283990400 8.830045935500 1 1 1
2.717666896200 4.707137142200 0.000000000000 1 1 1
5.435333792400 6.276182856600 2.218965729100 1 1 1
4.076500344300 5.491659999000 4.437931458300 1 1 1
8.152952320700 4.707090805200 6.652332356400 1 1 1
5.435346904600 6.276113878200 8.829953294700 1 1 1
4.076500344300 7.060705713400 0.000000000000 1 1 1
6.794167240500 8.629751427700 2.218965729100 1 1 1
5.435333792400 7.845228570100 4.437931458300 1 1 1
9.511750063500 7.060624612200 6.652229363100 1 1 1
6.794169685900 8.629827532700 8.830004169400 1 1 1
2.717666896200 0.000000000000 0.000000000000 1 1 1
5.435333792400 1.569045714400 2.218965729100 1 1 1
4.076500344300 0.784522856700 4.437931458300 1 1 1
8.152890538300 9.414117733600 6.652239837400 1 1 1
5.435344500600 1.568840205500 8.830107530400 1 1 1
4.076500344300 2.353568571100 0.000000000000 1 1 1
6.794167240500 3.922614285500 2.218965729100 1 1 1
5.435333792400 3.138091427800 4.437931458300 1 1 1
4.076426935800 2.353457034600 6.652329216700 1 1 1
6.794189454700 3.922283990400 8.830045935500 1 1 1
5.435333792400 4.707137142200 0.000000000000 1 1 1
8.153000688600 6.276182856600 2.218965729100 1 1 1
6.794167240500 5.491659999000 4.437931458300 1 1 1
5.435285424500 4.707090805200 6.652332356400 1 1 1
8.153013800800 6.276113878200 8.829953294700 1 1 1
6.794167240500 7.060705713400 0.000000000000 1 1 1
9.511834136700 8.629751427700 2.218965729100 1 1 1
8.153000688600 7.845228570100 4.437931458300 1 1 1
6.794083167300 7.060624612200 6.652229363100 1 1 1
9.511836582100 8.629827532700 8.830004169400 1 1 1
C
0.0
2
1.358833448100 0.784522856700 10.488940978506 1 1 1
6.794167240526 5.491659998936 10.488940978506 1 1 1
O
0.0
2
1.358833448100 0.784522856700 11.626940978506 1 1 1
6.794167240526 5.491659998936 11.626940978506 1 1 1
