INPUT_PARAMETERS 
#Parameters (1.General) 
suffix ABACUS 
calculation md 

#Parameters (2.Iteration) 
ecutwfc 100 
scf_thr 1e-6
scf_nmax 100 

#Parameters (3.Basis) 
basis_type lcao

#Parameters (4.Smearing) 
smearing_method gauss 
smearing_sigma 0.002

#Parameters (5.Mixing) 
mixing_type pulay 
mixing_beta 0.3

cal_stress 1

#MD
chg_extrap second-order
md_type 2
md_tfirst 300
md_tlast  300 
md_nstep 10 
md_tfirst 10 
md_tfreq 0.5
