ATOMIC_SPECIES
Si  28.085        ./Si_ONCV_PBE-1.0.upf
C   12.011        ./C_ONCV_PBE-1.0.upf

NUMERICAL_ORBITAL
./Si_gga_9au_100Ry_3s3p2d.orb
./C_gga_9au_100Ry_3s3p2d.orb

LATTICE_CONSTANT
1.8897261258369282 

LATTICE_VECTORS
8.7079870000      0.0000000000      0.0000000000      
0.0000000000      8.7079870000      0.0000000000      
0.0000000000      0.0000000000      8.7079870000      

ATOMIC_POSITIONS
Direct

Si
0.0000000000
32
0.3750000000 0.1250000000 0.3750000000 1 1 1 mag 0.0 
0.3750000000 0.1250000000 0.8750000000 1 1 1 mag 0.0 
0.3750000000 0.6250000000 0.3750000000 1 1 1 mag 0.0 
0.3750000000 0.6250000000 0.8750000000 1 1 1 mag 0.0 
0.8750000000 0.1250000000 0.3750000000 1 1 1 mag 0.0 
0.8750000000 0.1250000000 0.8750000000 1 1 1 mag 0.0 
0.8750000000 0.6250000000 0.3750000000 1 1 1 mag 0.0 
0.8750000000 0.6250000000 0.8750000000 1 1 1 mag 0.0 
0.3750000000 0.3750000000 0.1250000000 1 1 1 mag 0.0 
0.3750000000 0.3750000000 0.6250000000 1 1 1 mag 0.0 
0.3750000000 0.8750000000 0.1250000000 1 1 1 mag 0.0 
0.3750000000 0.8750000000 0.6250000000 1 1 1 mag 0.0 
0.8750000000 0.3750000000 0.1250000000 1 1 1 mag 0.0 
0.8750000000 0.3750000000 0.6250000000 1 1 1 mag 0.0 
0.8750000000 0.8750000000 0.1250000000 1 1 1 mag 0.0 
0.8750000000 0.8750000000 0.6250000000 1 1 1 mag 0.0 
0.1250000000 0.1250000000 0.1250000000 1 1 1 mag 0.0 
0.1250000000 0.1250000000 0.6250000000 1 1 1 mag 0.0 
0.1250000000 0.6250000000 0.1250000000 1 1 1 mag 0.0 
0.1250000000 0.6250000000 0.6250000000 1 1 1 mag 0.0 
0.6250000000 0.1250000000 0.1250000000 1 1 1 mag 0.0 
0.6250000000 0.1250000000 0.6250000000 1 1 1 mag 0.0 
0.6250000000 0.6250000000 0.1250000000 1 1 1 mag 0.0 
0.6250000000 0.6250000000 0.6250000000 1 1 1 mag 0.0 
0.1250000000 0.3750000000 0.3750000000 1 1 1 mag 0.0 
0.1250000000 0.3750000000 0.8750000000 1 1 1 mag 0.0 
0.1250000000 0.8750000000 0.3750000000 1 1 1 mag 0.0 
0.1250000000 0.8750000000 0.8750000000 1 1 1 mag 0.0 
0.6250000000 0.3750000000 0.3750000000 1 1 1 mag 0.0 
0.6250000000 0.3750000000 0.8750000000 1 1 1 mag 0.0 
0.6250000000 0.8750000000 0.3750000000 1 1 1 mag 0.0 
0.6250000000 0.8750000000 0.8750000000 1 1 1 mag 0.0 

C
0.0000000000
32
0.0000000000 0.0000000000 0.0000000000 1 1 1 mag 0.0 
0.0000000000 0.0000000000 0.5000000000 1 1 1 mag 0.0 
0.0000000000 0.5000000000 0.0000000000 1 1 1 mag 0.0 
0.0000000000 0.5000000000 0.5000000000 1 1 1 mag 0.0 
0.5000000000 0.0000000000 0.0000000000 1 1 1 mag 0.0 
0.5000000000 0.0000000000 0.5000000000 1 1 1 mag 0.0 
0.5000000000 0.5000000000 0.0000000000 1 1 1 mag 0.0 
0.5000000000 0.5000000000 0.5000000000 1 1 1 mag 0.0 
0.0000000000 0.2500000000 0.2500000000 1 1 1 mag 0.0 
0.0000000000 0.2500000000 0.7500000000 1 1 1 mag 0.0 
0.0000000000 0.7500000000 0.2500000000 1 1 1 mag 0.0 
0.0000000000 0.7500000000 0.7500000000 1 1 1 mag 0.0 
0.5000000000 0.2500000000 0.2500000000 1 1 1 mag 0.0 
0.5000000000 0.2500000000 0.7500000000 1 1 1 mag 0.0 
0.5000000000 0.7500000000 0.2500000000 1 1 1 mag 0.0 
0.5000000000 0.7500000000 0.7500000000 1 1 1 mag 0.0 
0.2500000000 0.0000000000 0.2500000000 1 1 1 mag 0.0 
0.2500000000 0.0000000000 0.7500000000 1 1 1 mag 0.0 
0.2500000000 0.5000000000 0.2500000000 1 1 1 mag 0.0 
0.2500000000 0.5000000000 0.7500000000 1 1 1 mag 0.0 
0.7500000000 0.0000000000 0.2500000000 1 1 1 mag 0.0 
0.7500000000 0.0000000000 0.7500000000 1 1 1 mag 0.0 
0.7500000000 0.5000000000 0.2500000000 1 1 1 mag 0.0 
0.7500000000 0.5000000000 0.7500000000 1 1 1 mag 0.0 
0.2500000000 0.2500000000 0.0000000000 1 1 1 mag 0.0 
0.2500000000 0.2500000000 0.5000000000 1 1 1 mag 0.0 
0.2500000000 0.7500000000 0.0000000000 1 1 1 mag 0.0 
0.2500000000 0.7500000000 0.5000000000 1 1 1 mag 0.0 
0.7500000000 0.2500000000 0.0000000000 1 1 1 mag 0.0 
0.7500000000 0.2500000000 0.5000000000 1 1 1 mag 0.0 
0.7500000000 0.7500000000 0.0000000000 1 1 1 mag 0.0 
0.7500000000 0.7500000000 0.5000000000 1 1 1 mag 0.0 

