ATOMIC_SPECIES
Si 28.085 Si_ONCV_PBE-1.0.upf upf201
C 12.011 C_ONCV_PBE-1.0.upf upf201

NUMERICAL_ORBITAL
Si_gga_9au_100Ry_3s3p2d.orb
C_gga_9au_100Ry_3s3p2d.orb

LATTICE_CONSTANT
1.88972612546

LATTICE_VECTORS
9.39316621721 1.89492609906e-10 5.05769828358e-15 #latvec1
-4.69658310844 8.13472059204 1.50222771484e-12 #latvec2
5.53858211492e-15 1.9049319149e-12 10.2759311162 #latvec3

ATOMIC_POSITIONS
Cartesian

Si #label
0 #magnetism
36 #number of atoms
0.00435916699098  1.80580684309  2.56642694579  m  1  1  1  v  1.9174377234e-06  -2.45908501554e-05  -3.03263448399e-05
3.12941676759  7.23214798784  2.56972249426  m  1  1  1  v  3.31203017369e-05  9.56994368045e-06  -1.89073586531e-05
-3.13630147429  7.22856065497  2.56747992065  m  1  1  1  v  -6.7279287206e-05  -3.68052659007e-05  8.26719162805e-05
4.69702435382  6.32990119232  5.13626108954  m  1  1  1  v  -7.75218133063e-05  6.852294238e-05  9.27043990447e-05
1.56498668422  0.914453806172  5.1376117548  m  1  1  1  v  -8.35863991096e-05  3.00118399358e-05  -5.14138098916e-05
7.82736246972  0.911302412204  5.13450408001  m  1  1  1  v  -9.54156521624e-05  0.000161938745462  -8.20082723054e-05
-0.00411151017866  1.80627577513  7.70726814357  m  1  1  1  v  1.00917773332e-05  2.98051887618e-05  3.68739437986e-05
3.12523575853  7.23461141883  7.69589127522  m  1  1  1  v  -9.13953203411e-05  5.98705489669e-05  -9.50404849586e-05
-3.13188495881  7.23249453042  7.7060716572  m  1  1  1  v  -9.3695377097e-05  3.44286262175e-05  -4.40211632832e-05
4.69447441516  6.33273834602  10.2715144689  m  1  1  1  v  -4.65135774921e-05  -5.92929311896e-05  -2.01186800337e-05
1.55932066809  0.898884211033  0.000559609865049  m  1  1  1  v  -0.000119878109013  -3.99572247454e-05  -6.0806613184e-05
7.82880909084  0.898467166053  10.2704240531  m  1  1  1  v  7.83587934504e-05  -2.22291902251e-05  -3.60034109473e-05
-1.56768287856  4.5183688569  2.56827221327  m  1  1  1  v  -0.000166498022651  -0.00010267358432  0.00015291224972
1.57046692387  4.52479932363  2.56444611879  m  1  1  1  v  0.000141188077681  -0.000170628993794  -8.40974105092e-06
-0.00169199701897  7.22927644586  2.55887783778  m  1  1  1  v  1.07438982862e-05  -2.19056279225e-05  -0.000199844522541
6.26764464982  3.61576550968  5.13832651424  m  1  1  1  v  -3.23653604208e-05  0.000111627992239  0.000189177859181
3.1308494912  3.61373031547  5.13429520144  m  1  1  1  v  0.000119338401859  -0.000106732563721  -1.20725483174e-05
4.6914747686  0.909531463077  5.14022690463  m  1  1  1  v  -7.17192047266e-05  2.2735746045e-05  3.76118082868e-05
-1.56947030764  4.52454543753  7.7043007253  m  1  1  1  v  6.23325852005e-05  -8.04851253106e-05  6.5593597495e-05
1.56686646342  4.52311969281  7.7028156358  m  1  1  1  v  6.26969193849e-06  0.000101794991725  1.94661328407e-05
-0.00197519746412  7.23703454036  7.70676450071  m  1  1  1  v  -2.4794050713e-05  0.000210055571854  -3.44325956797e-05
6.26420693386  3.61578956132  10.2684979913  m  1  1  1  v  -7.34859673763e-05  6.20027034328e-05  -4.23144646931e-05
3.13201868449  3.61272639151  0.000320385769911  m  1  1  1  v  0.000114824738631  0.000127563053487  8.02135348513e-05
4.69779305448  0.907020022261  10.2663082222  m  1  1  1  v  3.88973375649e-05  4.121233451e-05  -7.40995543907e-05
3.13220465754  1.80862314795  2.56814412193  m  1  1  1  v  1.96156649913e-05  6.3234024636e-05  0.000128107255042
6.25574146907  1.80916181334  2.56674953837  m  1  1  1  v  -0.000169054161592  2.46259335405e-05  1.11639250093e-05
4.69983036085  4.51216177497  2.57133020528  m  1  1  1  v  6.878746187e-06  -8.20900864412e-05  0.000128247570325
1.56497468031  6.33097115034  5.13028873198  m  1  1  1  v  6.64041753933e-06  7.21336848949e-05  -6.99273452468e-05
-1.5669951924  6.3239651134  5.14321791487  m  1  1  1  v  3.62602247339e-05  -9.3709975813e-05  7.47108980642e-05
0.00421240683978  3.61428742138  5.13727797729  m  1  1  1  v  0.000109442269663  -9.87561050456e-05  -4.98147963641e-05
3.12650601635  1.80398602363  7.70753300657  m  1  1  1  v  -9.76480988104e-05  -0.000113577595907  0.000173041247097
6.26698075574  1.8132826007  7.69860574451  m  1  1  1  v  9.61219893083e-05  3.81350627921e-05  1.00336900499e-05
4.69530054861  4.51552153863  7.69657656528  m  1  1  1  v  6.24367299117e-05  -6.84157721648e-05  -9.17283324376e-05
1.56751737667  6.333146679  10.2752815137  m  1  1  1  v  -8.5413398172e-05  -4.71323988454e-05  -6.48864024057e-05
-1.56317542837  6.32667494277  0.000803818616309  m  1  1  1  v  -0.00017281059872  -1.48648335086e-05  -1.28442676652e-05
0.00312896926727  3.61759083489  0.00218402430082  m  1  1  1  v  -5.37343530176e-05  4.14593112531e-05  2.16112144908e-05

C #label
0 #magnetism
36 #number of atoms
-0.00663884242207  1.81316570793  4.49018582063  m  1  1  1  v  -3.74624394458e-05  9.26971247765e-05  -7.22947228157e-05
3.12301902131  7.22866439241  4.49879776302  m  1  1  1  v  -0.000186520921833  9.49228505643e-05  1.71809671098e-05
-3.13729139781  7.23401057835  4.50023781556  m  1  1  1  v  5.2741235889e-05  -0.000201111356137  0.000218520945875
4.702558397  6.34226743445  7.05482531307  m  1  1  1  v  -0.000189929892699  -5.79433426197e-05  9.06033228501e-05
1.56580653055  0.903289156398  7.07215804917  m  1  1  1  v  9.24528307397e-05  0.00015835439705  -0.000114627936798
7.84129938752  0.908685396776  7.05768078292  m  1  1  1  v  -5.38569702612e-06  0.000320387575989  -3.09586010137e-05
-0.0195859500392  1.80006129295  9.63578233768  m  1  1  1  v  -0.000317903418721  6.89295415155e-05  -0.000163516721769
3.12005498459  7.2174470631  9.62451862839  m  1  1  1  v  -0.000119516206896  -7.01485790128e-05  -0.00020948237066
-3.13470816417  7.23232512468  9.63584884438  m  1  1  1  v  0.00012778835534  5.55834864539e-06  0.000117351139413
4.70587793399  6.32280658724  1.92728021804  m  1  1  1  v  0.000112228523711  -5.35932218296e-05  -0.00016670377513
1.56076026336  0.90927854009  1.92104769531  m  1  1  1  v  -0.000187669280894  -0.000120756319022  -5.18089468312e-05
7.83679027595  0.911785748665  1.94000521951  m  1  1  1  v  7.23564054536e-05  3.63696142992e-05  8.81717674337e-06
-1.57634187139  4.52621899751  4.50246753797  m  1  1  1  v  0.000121688581051  7.12640575585e-05  -0.000171880827679
1.55251513165  4.52706212236  4.4935233866  m  1  1  1  v  -9.60374470587e-06  -9.73036783791e-05  -0.000199743228703
-0.00431531365343  7.22918888688  4.50300677177  m  1  1  1  v  4.67835586319e-05  1.99623790723e-05  -3.58123953413e-05
6.25114469745  3.62592521121  7.07891710973  m  1  1  1  v  -4.08826159821e-05  7.57019641639e-07  0.000261192219006
3.13170971114  3.61747979094  7.05879155043  m  1  1  1  v  -0.000102615541236  2.47068953806e-05  -9.46424873343e-06
4.69086565548  0.91086657738  7.05995745606  m  1  1  1  v  9.12458250881e-05  0.000247953642408  -0.000103073641983
-1.56252126879  4.50617612902  9.6445062149  m  1  1  1  v  -0.000145452103267  3.43621537637e-05  0.000239485036422
1.55729560656  4.52239653044  9.62991375578  m  1  1  1  v  -4.52459996652e-06  -0.00020922467359  -0.000154066269889
0.00555091778892  7.2308154499  9.64690196242  m  1  1  1  v  0.000166878591385  -4.63519304867e-05  6.87212449582e-05
6.27023289899  3.62412663002  1.92519996868  m  1  1  1  v  9.05914146277e-05  6.68154619162e-06  0.000139898597902
3.12833073408  3.61435793488  1.92699299584  m  1  1  1  v  0.000132104739147  -0.00022336372388  -0.000134905652239
4.70343294026  0.898806871904  1.92576207455  m  1  1  1  v  0.000303760293932  0.000112780160639  0.000123026079416
3.12302048956  1.81122394466  4.49295472685  m  1  1  1  v  -0.00023804570319  0.000139676560046  0.000126644941149
6.25936182802  1.7999394591  4.49130989467  m  1  1  1  v  -0.000291629155117  -0.000256039328058  -0.000212525223691
4.69313283124  4.52629681478  4.48335025585  m  1  1  1  v  -1.07918778894e-06  -2.05065996857e-05  -0.00016411811738
1.56638615861  6.32976379017  7.07116546018  m  1  1  1  v  -3.60694706511e-05  5.86701387406e-05  5.19832895419e-05
-1.56989109847  6.33117483307  7.06658760507  m  1  1  1  v  0.000209923896807  -7.19318067759e-05  9.96538487517e-05
0.00192266543946  3.6211586999  7.0709942714  m  1  1  1  v  0.000101494015637  0.000264175395329  -0.000130314923679
3.12519563134  1.80900674795  9.64039352262  m  1  1  1  v  -6.84143529555e-05  8.61164504123e-05  0.000172256455379
6.26313489902  1.80337052347  9.64101105929  m  1  1  1  v  2.17448168874e-05  -0.000163281371527  -0.000166274999624
4.70484036457  4.51144342985  9.64852914229  m  1  1  1  v  0.00013692535576  -1.3275779607e-05  -4.35629861582e-05
1.56173813437  6.32370307113  1.92856515793  m  1  1  1  v  2.64824013172e-05  -5.44906653199e-05  -0.000276092746518
-1.5624562405  6.31555325093  1.93321226541  m  1  1  1  v  0.000125380941517  -0.00030934281045  0.00021203379075
-0.0116308178596  3.61491314269  1.921759379  m  1  1  1  v  -8.80142157559e-05  -0.000257321584957  -2.48595396502e-05
