ATOMIC_SPECIES
Si 28.085 Si_ONCV_PBE-1.0.upf upf201
C 12.011 C_ONCV_PBE-1.0.upf upf201

NUMERICAL_ORBITAL
Si_gga_9au_100Ry_3s3p2d.orb
C_gga_9au_100Ry_3s3p2d.orb

LATTICE_CONSTANT
1.88972612546

LATTICE_VECTORS
9.39316621721 1.89492609906e-10 5.05769828358e-15 #latvec1
-4.69658310844 8.13472059204 1.50222771484e-12 #latvec2
5.53858211492e-15 1.9049319149e-12 10.2759311162 #latvec3

ATOMIC_POSITIONS
Cartesian

Si #label
0 #magnetism
36 #number of atoms
0.00209418523052  1.82171373681  2.56652012907  m  1  1  1  v  9.25609239019e-05  0.000267681755306  -0.000168576879299
3.14191511807  7.22699460637  2.56452596334  m  1  1  1  v  0.000261461331565  0.000131689162673  -0.00025369596711
-3.13897868171  7.22294165954  2.56176975009  m  1  1  1  v  0.000157347740895  -3.51086257045e-06  0.000130818785888
4.68333509779  6.32050896974  5.13559089655  m  1  1  1  v  -7.87892635653e-05  7.11235860622e-06  -1.9155966291e-05
1.55394625257  0.911187955553  5.13669418617  m  1  1  1  v  -5.77024051033e-05  -1.77377015755e-05  0.000101902740781
7.8176962338  0.922598798131  5.14354381614  m  1  1  1  v  -0.000103646525094  2.9922329866e-05  2.81680304041e-05
-0.00672783539924  1.80387471273  7.70878246371  m  1  1  1  v  0.000264513518247  -2.8539681203e-05  7.98516790655e-05
3.12032135803  7.23878245802  7.69848222897  m  1  1  1  v  -5.84036629557e-05  -0.000290179436449  -3.81653626289e-05
-3.13185666089  7.240645672  7.71612782029  m  1  1  1  v  -0.000106951995966  0.000143037435732  0.000239307500464
4.67838906319  6.3316675197  0.00680115865151  m  1  1  1  v  -0.000199979455141  -0.000156509225373  0.000104015653938
1.5494546841  0.901414781878  10.2731919479  m  1  1  1  v  -6.8642325487e-05  0.000270017426227  5.39934556462e-05
7.83795132845  0.907827901912  10.2675925901  m  1  1  1  v  7.76553419721e-05  0.000201227451443  -0.000137819812131
-1.57922479267  4.51771961856  2.57760388647  m  1  1  1  v  0.000166062726919  2.71533489232e-05  0.000173198378646
1.56892559308  4.52777973753  2.57078421636  m  1  1  1  v  -3.98637039272e-05  -6.14311361384e-05  0.00016418452673
-0.00840181325893  7.22840127342  2.54581119264  m  1  1  1  v  -5.85538515224e-05  0.000206940356997  0.00016937756162
6.26499996241  3.6086786187  5.14148679105  m  1  1  1  v  4.77465025538e-05  -0.000223323042291  -0.000129596111294
3.12905092145  3.6103691315  5.1284803036  m  1  1  1  v  -0.000238398081184  5.16536150058e-05  -0.000153920918317
4.68808582024  0.90538307056  5.14554830927  m  1  1  1  v  -0.000161234861932  -2.72424427985e-05  -0.000120488919411
-1.5778480693  4.52764999609  7.71515351151  m  1  1  1  v  -0.000187342777078  0.000192083044679  2.20383502545e-05
1.57451860736  4.52800396824  7.70649261945  m  1  1  1  v  5.5918708171e-05  -2.6158534169e-05  0.000194967595647
0.000757563266692  7.25111169743  7.7076826124  m  1  1  1  v  0.000159347462472  0.000224996391881  0.000137698396122
6.25561059328  3.60904360858  10.2705229107  m  1  1  1  v  -0.000114741281236  -9.73885234392e-06  1.86963235711e-05
3.1382334327  3.61113483177  0.00829959100004  m  1  1  1  v  6.372755166e-05  -0.000171104162601  3.44870813201e-05
4.70629847668  0.910827089568  10.2702033831  m  1  1  1  v  -8.89033444435e-05  0.000109995390324  -6.97926493432e-06
3.13024093973  1.82198660228  2.57498447302  m  1  1  1  v  9.57744635223e-05  -0.000280200206224  0.000203026110155
6.2476997073  1.81533045426  2.57364123357  m  1  1  1  v  0.000254037115524  0.000101710616883  -2.63811780945e-05
4.68772611492  4.52553495823  2.56527812926  m  1  1  1  v  0.000133531471977  0.000185041750064  2.56700141198e-05
1.57704728343  6.33284366184  5.12973831656  m  1  1  1  v  -4.06442587144e-05  3.28063946042e-05  -4.89699213104e-06
-1.56516886439  6.32516804849  5.13816370111  m  1  1  1  v  0.000177537322294  0.000166346115657  -0.000143668810345
0.00929411528262  3.61901411496  5.13220007193  m  1  1  1  v  -0.000128203640833  0.000217579654695  -0.000158145858139
3.1176108765  1.80239475238  7.7078105521  m  1  1  1  v  -0.000249609938478  5.02448065609e-05  7.7621964739e-05
6.26389871117  1.81915614662  7.70144335345  m  1  1  1  v  0.00020990428633  -6.12487996319e-05  6.14894827845e-05
4.69894148106  4.52492174223  7.70567135711  m  1  1  1  v  -0.000102477206764  -1.74948105399e-06  0.000215121636914
1.57267729248  6.32014865738  10.2697258487  m  1  1  1  v  -5.0974426615e-05  -7.58913184225e-05  4.04522814256e-06
-1.57173368146  6.32986253525  10.2687037396  m  1  1  1  v  -5.09089277653e-05  3.24974624823e-06  6.01592381835e-05
0.00841646777878  3.61559670503  10.2689209438  m  1  1  1  v  0.000142606839931  -6.92501186045e-05  -0.000169907687327

C #label
0 #magnetism
36 #number of atoms
-0.0174469817989  1.82043979897  4.50461379034  m  1  1  1  v  0.000211635184656  7.33673376511e-05  1.65604661343e-05
3.11744445172  7.2100588997  4.46985284492  m  1  1  1  v  0.000242932070511  5.5951448243e-05  -0.000409238289216
-3.14014539205  7.24790532347  4.5014879468  m  1  1  1  v  -0.000283366402609  0.000292488280081  0.000317916161641
4.72206550497  6.3175358693  7.0503821511  m  1  1  1  v  -2.50037493815e-05  -0.000376407836522  0.000165136629954
1.56469277729  0.911829999117  7.05638011475  m  1  1  1  v  -0.000242790902624  -0.000280433727042  -0.000265624726524
7.83344007751  0.902060295867  7.0420696323  m  1  1  1  v  -0.000133064397672  -0.000446554803791  0.000150038495188
-0.0276090862395  1.79190769659  9.64250574023  m  1  1  1  v  7.29623695777e-06  -8.91529434318e-05  0.00013291223996
3.12929751931  7.23131040404  9.62048243871  m  1  1  1  v  -0.00018174983172  0.000327602366559  2.25353976073e-05
-3.1237110044  7.23984132785  9.64422689756  m  1  1  1  v  0.00031185688285  0.000228110702833  3.44178850554e-05
4.70945755925  6.30859618703  1.92833960113  m  1  1  1  v  -0.000108195963889  -2.68618836073e-05  0.000427821297134
1.56346509407  0.913501137411  1.93619062895  m  1  1  1  v  0.000150974770582  0.000141055429636  1.98033120324e-06
7.82128693431  0.917081205597  1.94348435589  m  1  1  1  v  0.000182327441337  -0.000134054102302  3.96240393133e-05
-1.59005402031  4.50271179318  4.49027455247  m  1  1  1  v  -0.000241644312704  -0.000389123622156  -0.000137147856568
1.54972586934  4.54981433526  4.46828466366  m  1  1  1  v  -0.000428951473552  7.80395145669e-05  -1.39688102712e-05
-0.00313725292774  7.23975998208  4.51079320474  m  1  1  1  v  0.000209805364902  -0.000135455850804  -0.00033016883789
6.26330230876  3.64290313454  7.07166769938  m  1  1  1  v  -7.77301582068e-05  0.000229876071311  -0.000274950884904
3.11945417966  3.5948715016  7.0582034239  m  1  1  1  v  7.65409608306e-05  -0.000251035589106  0.000132686388516
4.69332670778  0.90766256504  7.04392040379  m  1  1  1  v  0.000199646710096  5.67677716012e-05  -2.49755612143e-05
-1.59099506992  4.50422333548  9.63859151982  m  1  1  1  v  -0.000272750608281  -0.000117616236243  -0.000318179708934
1.56551837902  4.53587097777  9.62304908961  m  1  1  1  v  0.000252372680782  0.000264090073242  0.000152302584096
0.00101203996245  7.21666150245  9.65110741159  m  1  1  1  v  0.000176342417757  -5.71715820808e-05  0.000290953600461
6.26877989072  3.62432743175  1.92271153213  m  1  1  1  v  0.000177779688102  8.89523698537e-05  -0.000323698483294
3.1434859947  3.61028784716  1.9125343658  m  1  1  1  v  0.000225321680698  -0.000148685978975  -0.000210461145675
4.71225687207  0.89982808102  1.941650648  m  1  1  1  v  5.81612808274e-05  -9.21717650728e-05  -0.000130062914462
3.13828825008  1.82515741044  4.49550838875  m  1  1  1  v  2.42420238591e-05  9.52569098803e-05  -0.000252013208136
6.27755037123  1.79862279214  4.48654661823  m  1  1  1  v  0.000194522133618  4.52415707884e-05  2.05093867616e-05
4.71347192888  4.53816580003  4.48241582616  m  1  1  1  v  -6.04904655241e-05  7.40347974862e-05  -0.000258409255707
1.57773206247  6.3190457917  7.09490759572  m  1  1  1  v  6.63208892893e-05  -0.000200108588827  0.000258030721044
-1.57096050708  6.33735386216  7.07790029828  m  1  1  1  v  3.88632935856e-05  -3.48527384843e-06  0.000163009278062
0.0090554251933  3.62206330834  7.06660479771  m  1  1  1  v  0.000210286571994  -0.000255871509311  -5.12254477241e-05
3.11804588147  1.8181558856  9.63063066726  m  1  1  1  v  -0.000133698849086  -9.71892965114e-05  -0.000129868751111
6.26828875845  1.78722102794  9.62433333896  m  1  1  1  v  0.000148361922394  -0.000383364148258  -2.68071317541e-05
4.69890726023  4.51795236711  9.63612726569  m  1  1  1  v  -0.000172051447926  -0.000167912655336  0.00031515478603
1.57136356974  6.3141916014  1.92985450499  m  1  1  1  v  0.000110797525193  -7.4350778174e-05  0.000202839649067
-1.56229719793  6.29738240818  1.95259416876  m  1  1  1  v  -2.28476631948e-05  -3.64103762935e-05  0.000301487611912
0.00168931749135  3.62233039141  1.90976697232  m  1  1  1  v  -0.000259336685798  0.000164052067866  -0.000127645167932
