ATOMIC_SPECIES
Si 28.085 Si_ONCV_PBE-1.0.upf upf201
C 12.011 C_ONCV_PBE-1.0.upf upf201

NUMERICAL_ORBITAL
Si_gga_9au_100Ry_3s3p2d.orb
C_gga_9au_100Ry_3s3p2d.orb

LATTICE_CONSTANT
1.88972612546

LATTICE_VECTORS
9.22824166398 0 0 #latvec1
-4.81929230707 8.18557746278 0 #latvec2
-0.162819713413 0.155022312906 10.1884293622 #latvec3

ATOMIC_POSITIONS
Cartesian

Si #label
0 #magnetism
36 #number of atoms
-0.0380821725548  1.82823766408  2.52877581488  m  1  1  1  v  0.000116653255853  0.000272386558093  -0.000160435538454
2.99715234219  7.21754446505  2.5115251011  m  1  1  1  v  0.000255238641352  0.0001486276711  -0.000248675668321
-3.21305836549  7.13792040229  2.46039606035  m  1  1  1  v  0.000180426489638  3.39076844141e-05  0.000147428316817
4.51398315123  6.35668895703  5.07027787186  m  1  1  1  v  -9.52067428034e-05  2.10038736504e-06  -2.42526986831e-05
1.4879364344  0.955785035661  5.08877662032  m  1  1  1  v  -4.98313908107e-05  -3.48040355522e-05  9.47433570225e-05
7.68559660813  1.04332566468  5.13722357258  m  1  1  1  v  -0.00011804390657  1.01382023018e-06  2.43036936893e-05
-0.0827642694871  1.83859563029  7.62599952827  m  1  1  1  v  0.000286960885578  -1.84500489833e-05  8.68266174402e-05
2.94044992465  7.27132238648  7.59772677613  m  1  1  1  v  -6.84384420837e-05  -0.00027336698482  -3.39208204068e-05
-3.2453147825  7.19162447592  7.56539378224  m  1  1  1  v  -8.91913496825e-05  0.000180703684867  0.000253802910594
4.46602937316  6.40305592892  10.1686317575  m  1  1  1  v  -0.000219170664557  -0.000157236691426  0.000101485908923
1.43737708518  0.9821161086  10.1765160695  m  1  1  1  v  -6.10659299795e-05  0.000255891188667  5.09637323061e-05
7.82805681377  0.912278437957  0.0297517444081  m  1  1  1  v  5.54447635418e-05  0.000171967475662  -0.000140222820891
-1.63623085005  4.47815792616  2.51166215246  m  1  1  1  v  0.000192505526114  4.23400672565e-05  0.000183211929422
1.47976782353  4.51741946367  2.52509066203  m  1  1  1  v  -4.011377586e-05  -6.03162569508e-05  0.00016411034218
-0.118537743541  7.18075113968  2.46819312655  m  1  1  1  v  -6.11311260364e-05  0.000228021135134  0.000173633815977
6.11376995263  3.68583581065  5.11057249019  m  1  1  1  v  2.99373971542e-05  -0.000236244264947  -0.000130879292454
3.01108972877  3.65169670118  5.07492824752  m  1  1  1  v  -0.000238673553218  5.17168774259e-05  -0.000154094147251
4.58541204132  0.986038526357  5.12913703334  m  1  1  1  v  -0.000157192911135  -4.73411256283e-05  -0.000130494345618
-1.68061038793  4.5247038065  7.59070545244  m  1  1  1  v  -0.000159710849804  0.00020964362743  3.6216906731e-05
1.43676600971  4.55781929748  7.60976951993  m  1  1  1  v  5.68031299436e-05  -2.46286081388e-05  0.000195223183955
-0.150538228421  7.2403354798  7.57794873044  m  1  1  1  v  0.000156484309662  0.000247337108505  0.000142493996797
6.05666163017  3.73084292478  10.1868619093  m  1  1  1  v  -0.000132470015971  -2.12427848676e-05  2.11265171724e-05
2.97575534043  3.68718257315  10.1793510282  m  1  1  1  v  6.17078435592e-05  -0.00016620963732  3.61829705694e-05
4.73165156217  0.877458262687  0.00996476513092  m  1  1  1  v  -8.9339142833e-05  9.50765249648e-05  -1.14574911167e-05
3.05595346104  1.86024372514  2.55952026067  m  1  1  1  v  9.6961143133e-05  -0.000290198594607  0.000200185943597
6.13766429679  1.88964628649  2.57974176507  m  1  1  1  v  0.000251350215009  9.01903341822e-05  -2.62413262144e-05
4.5619660164  4.5567925329  2.54187158013  m  1  1  1  v  0.000128954582066  0.000180336916565  2.78194631072e-05
1.44051285237  6.32885488466  5.04171369899  m  1  1  1  v  -4.13171816654e-05  4.03659884079e-05  -6.18793212005e-06
-1.66710171937  6.28395287709  5.02498171974  m  1  1  1  v  0.000182304760361  0.000177679632333  -0.000144216558932
-0.078317694175  3.62071881039  5.05781385757  m  1  1  1  v  -0.000121493640511  0.000221704645657  -0.000158460051096
2.99717812357  1.8789514651  7.64759031299  m  1  1  1  v  -0.000246671764035  4.1899929692e-05  7.3276865713e-05
6.12230846365  1.93498332999  7.65296681932  m  1  1  1  v  0.000203107137485  -7.45359057118e-05  6.34994172772e-05
4.53651391465  4.59649485551  7.62530925093  m  1  1  1  v  -0.000111778191658  -5.5885144748e-06  0.000219123920418
1.39352729536  6.35197409574  10.1333045218  m  1  1  1  v  -5.46237042461e-05  -6.32130843755e-05  4.35285687027e-06
-1.71481263091  6.32616859769  10.1057336519  m  1  1  1  v  -4.9704610313e-05  1.78666273192e-05  6.18433410914e-05
-0.115315117302  3.65229905354  10.1444299359  m  1  1  1  v  0.000142862563146  -6.02831544518e-05  -0.000166935696988

C #label
0 #magnetism
36 #number of atoms
-0.0687003992972  1.83931930026  4.44316933898  m  1  1  1  v  0.000250261367877  8.88980230977e-05  1.19159438858e-05
2.95802448763  7.21780318991  4.39896533612  m  1  1  1  v  0.00023332798386  8.37521696624e-05  -0.00039261452032
-3.22892192196  7.18083229705  4.384440181  m  1  1  1  v  -0.000253468697252  0.00036327931518  0.000335379474181
4.52518797211  6.36081487743  6.95621084033  m  1  1  1  v  -7.08433985609e-05  -0.000396298216462  0.000142451367234
1.48153118975  0.968555237785  6.98392056899  m  1  1  1  v  -0.000230966891077  -0.000322259408961  -0.000262716144193
7.67987463768  1.0248008922  7.01904956974  m  1  1  1  v  -0.000178742329564  -0.000524283263738  0.00011580242578
-0.117166491414  1.84946315398  9.53163988377  m  1  1  1  v  4.98747494662e-05  -7.04750578872e-05  0.000126311135505
2.92429830201  7.28198563788  9.49949180911  m  1  1  1  v  -0.000190682862871  0.000359417606857  4.38345969639e-05
-3.25769487728  7.21283655981  9.4703577815  m  1  1  1  v  0.000340451114207  0.000298227556111  5.85634121888e-05
4.5581440775  6.31319605848  1.88876929184  m  1  1  1  v  -0.000158020023859  -5.9190915885e-05  0.000392694568446
1.52585587819  0.927435640036  1.92131539018  m  1  1  1  v  0.000166108654399  9.70863168224e-05  -7.19652997508e-06
7.70677699924  1.00080886172  1.96885809879  m  1  1  1  v  0.00014581361357  -0.0002151254874  2.69462802248e-06
-1.65715804197  4.47793438571  4.3979622469  m  1  1  1  v  -0.000203927463555  -0.000365936339412  -0.000135877107501
1.44281433115  4.55417575984  4.40552149865  m  1  1  1  v  -0.00043086858941  7.55232058216e-05  -1.553959239e-05
-0.133618752458  7.2144236638  4.41935872152  m  1  1  1  v  0.000206953647529  -9.29952039979e-05  -0.000311980613121
6.08431931231  3.72751094292  7.01808262098  m  1  1  1  v  -0.000129412493306  0.000195366190471  -0.000308807613959
2.98573315017  3.64886663574  6.98321239305  m  1  1  1  v  7.92359705363e-05  -0.000248024519098  0.000136188750227
4.58599223874  0.999658072562  7.00334811972  m  1  1  1  v  0.000199971726946  1.37598627298e-05  -2.55167030461e-05
-1.70115958921  4.51892671287  9.49782162979  m  1  1  1  v  -0.000233803476362  -9.5575472139e-05  -0.000320637302023
1.41127760206  4.58033558312  9.50873799286  m  1  1  1  v  0.000254193501313  0.00025990443025  0.000152188430867
-0.169814485208  7.22808627614  9.50357331355  m  1  1  1  v  0.000172198032786  -2.08940547164e-05  0.000310622348247
6.13695720469  3.67170766542  1.91579195581  m  1  1  1  v  0.000126541111572  4.62023137329e-05  -0.00035754116876
3.05078171449  3.62311084388  1.8845077459  m  1  1  1  v  0.000235858336863  -0.000150871408141  -0.000213729239657
4.64365508325  0.950757175812  1.95099479176  m  1  1  1  v  6.70888997028e-05  -0.000143414277515  -0.000141608568025
3.04691261938  1.88167894239  4.45710594772  m  1  1  1  v  2.57810454884e-05  8.12632706135e-05  -0.000252422952263
6.15503922265  1.88894459904  4.47812412076  m  1  1  1  v  0.000185932108505  2.86785532489e-05  1.64476957103e-05
4.5682462231  4.5812939971  4.447107889  m  1  1  1  v  -6.51794438408e-05  6.58543708355e-05  -0.000262779793185
1.42703006415  6.33010232008  6.98815772961  m  1  1  1  v  6.85599821005e-05  -0.000187156144833  0.000256160534843
-1.68952340686  6.31037857583  6.94742400374  m  1  1  1  v  4.37723299565e-05  1.28590914006e-05  0.000161832294365
-0.0909312522863  3.64009438697  6.96893318427  m  1  1  1  v  0.000211378160631  -0.000253415079197  -4.63056068119e-05
2.99199954925  1.91351115226  9.54286856437  m  1  1  1  v  -0.00013981168302  -0.000113096783269  -0.000127550411041
6.10753429676  1.91962762167  9.55812339294  m  1  1  1  v  0.000141696035819  -0.000398927026925  -2.59829767116e-05
4.5177124322  4.60019021257  9.54214246865  m  1  1  1  v  -0.000185395989619  -0.000172576542415  0.000314717007344
1.46758052919  6.29086966924  1.87503810314  m  1  1  1  v  0.000114380714082  -7.35752096069e-05  0.000194955979482
-1.63954269118  6.22953726958  1.87095495794  m  1  1  1  v  -9.74382555776e-06  -2.30482218557e-05  0.000296285977687
-0.053050982519  3.59842132318  1.86472045906  m  1  1  1  v  -0.000249692044616  0.000167199833813  -0.000131914006991
