ATOMIC_SPECIES
Si 28.085 Si_ONCV_PBE-1.0.upf upf201
C 12.011 C_ONCV_PBE-1.0.upf upf201

NUMERICAL_ORBITAL
Si_gga_9au_100Ry_3s3p2d.orb
C_gga_9au_100Ry_3s3p2d.orb

LATTICE_CONSTANT
1.88972612546

LATTICE_VECTORS
9.22824166398 0 0 #latvec1
-4.81929230707 8.18557746278 0 #latvec2
-0.162819713413 0.155022312906 10.1884293622 #latvec3

ATOMIC_POSITIONS
Cartesian

Si #label
0 #magnetism
36 #number of atoms
-0.0460966533847  1.81269458794  2.52664086157  m  1  1  1  v  2.08222112447e-05  -5.34848695057e-06  1.34555746122e-05
2.98748804268  7.21758171862  2.51240542832  m  1  1  1  v  8.80550339023e-06  -1.47003972316e-05  2.75078094137e-05
-3.21046502856  7.13755302523  2.4614465862  m  1  1  1  v  -5.13704579227e-05  1.41017324051e-05  -1.22500325592e-05
4.53110758106  6.36451476003  5.07102912004  m  1  1  1  v  5.06210832341e-05  -5.44693153308e-05  3.69179263889e-06
1.49801322352  0.951804717227  5.08901507393  m  1  1  1  v  1.45510166814e-05  3.88272604189e-05  -2.83786180457e-05
7.69873310618  1.03133169614  5.13008155476  m  1  1  1  v  3.19016495298e-07  -5.67690194237e-06  5.60940028368e-06
-0.0815651688228  1.83973567542  7.62000179381  m  1  1  1  v  -3.59402677604e-05  -4.7374172969e-06  -8.39284815119e-07
2.95334326818  7.25974242105  7.60283129429  m  1  1  1  v  2.41853717426e-05  2.49994627707e-05  -4.10585253683e-05
-3.24891004992  7.17342640434  7.55061537337  m  1  1  1  v  4.91735204922e-05  1.34704857126e-05  -2.21277793633e-06
4.48878515736  6.39883083729  10.1596417213  m  1  1  1  v  4.51656259477e-06  -1.56630651859e-05  2.29569199702e-05
1.45200665078  0.987285451827  10.177383224  m  1  1  1  v  -3.60673516164e-06  4.31457733531e-05  -7.86229155721e-06
7.82223029907  0.914412580426  0.036281938394  m  1  1  1  v  1.52729539727e-05  -3.04159189209e-05  -2.5113218204e-05
-1.62864769662  4.47618984474  2.49825986577  m  1  1  1  v  -6.1575338024e-06  -1.85475888336e-05  -2.91298305641e-05
1.47660374957  4.50871269989  2.52076346609  m  1  1  1  v  6.82219232602e-06  2.35216016119e-05  -9.81867343464e-06
-0.109422045215  7.17884338095  2.48798696496  m  1  1  1  v  -9.31283028812e-06  -1.4861185074e-05  -4.55236308994e-05
6.11471031402  3.6952746721  5.10484460188  m  1  1  1  v  -1.31307426207e-07  -1.28883568417e-05  3.20378699329e-05
3.01315436868  3.6567680133  5.08199607803  m  1  1  1  v  -3.57207413218e-06  5.65397935133e-05  -1.06519198904e-06
4.59305525825  0.988534989846  5.12108764056  m  1  1  1  v  -2.18821980159e-05  7.66364199516e-07  1.65814596405e-05
-1.6744111611  4.51251798315  7.57695183511  m  1  1  1  v  6.00738108406e-07  7.63174208248e-06  -2.47717324543e-05
1.4276278432  4.54884031301  7.60774164327  m  1  1  1  v  1.7587874155e-05  3.70421200359e-05  -3.70673936403e-05
-0.150628452525  7.21543091873  7.57378659937  m  1  1  1  v  5.3533948387e-06  -1.94670914353e-05  -6.11241697166e-06
6.22981202366  3.58462445589  0.000856850950444  m  1  1  1  v  1.8244697657e-05  2.82925424105e-05  -1.48488975351e-05
2.96894814777  3.69031276832  10.1682657699  m  1  1  1  v  -1.37193485462e-05  1.24263692237e-05  -2.94349873755e-05
4.72189514016  0.873826674349  0.0143094894249  m  1  1  1  v  2.66233922009e-05  1.69441610939e-05  5.69915681345e-07
3.05665975701  1.84800063593  2.55159201402  m  1  1  1  v  2.58302585565e-06  2.65374634387e-05  -4.88169442525e-06
6.15259470401  1.88430524936  2.57252478541  m  1  1  1  v  1.23301498859e-05  -6.6101623716e-06  2.91507443929e-05
4.57175546247  4.55143630186  2.54266291822  m  1  1  1  v  -7.94985273518e-07  1.85029206306e-05  -4.40263366491e-06
1.42899437597  6.32148322536  5.04791506774  m  1  1  1  v  -4.57363578911e-05  5.29439844793e-05  -2.59179792814e-05
-1.66842276561  6.28350927348  5.02255205238  m  1  1  1  v  1.28455016267e-05  -3.38609726261e-05  2.37431330036e-05
-0.08899156821  3.61631638157  5.06124445541  m  1  1  1  v  -2.49032512124e-05  -3.9395597677e-06  -4.0296572377e-05
3.01010292442  1.88595734706  7.64524640945  m  1  1  1  v  -2.88074898566e-05  -1.177375606e-05  3.40952242417e-05
6.12187558107  1.92620753485  7.65552652772  m  1  1  1  v  -6.10086977136e-05  2.73674370865e-06  3.91217072301e-05
4.53599296668  4.59162753892  7.62328818501  m  1  1  1  v  3.16797747136e-05  -2.13812044224e-05  3.20890412082e-05
1.3871177421  6.35620510231  10.1370759602  m  1  1  1  v  -2.54901981885e-05  -1.6014034434e-05  -2.73751988562e-05
-1.70879700995  6.32028506745  10.1102854956  m  1  1  1  v  5.05569824879e-06  -3.46447231809e-05  -1.99980436516e-05
-0.123636720804  3.65023681716  10.1483753505  m  1  1  1  v  4.44762661357e-06  -5.48247991553e-06  4.95554440045e-06

C #label
0 #magnetism
36 #number of atoms
-0.060049878513  1.82289903707  4.43779807341  m  1  1  1  v  -3.45923957259e-05  2.31947392564e-05  -2.78639326482e-05
2.97405208037  7.23119629455  4.42294188875  m  1  1  1  v  -6.29539355816e-06  -2.27555423688e-05  -2.3092418558e-05
-3.22756284538  7.14862859199  4.3779033194  m  1  1  1  v  2.49761263203e-05  2.88595732134e-05  9.06693765834e-07
4.51096411233  6.37540921607  6.97887838208  m  1  1  1  v  1.28495588891e-06  3.02695879223e-05  4.78883536891e-05
1.4795750354  0.970246800213  6.99378841178  m  1  1  1  v  -6.00497084141e-06  -2.85653333107e-05  -8.24729123228e-06
7.6860380302  1.04491408692  7.0526562777  m  1  1  1  v  4.3819650622e-05  2.05454783474e-05  5.7519950912e-05
-0.0985811029272  1.86145998743  9.52631930567  m  1  1  1  v  6.4663973941e-06  -4.42216575238e-05  -4.57011079404e-05
2.92789806089  7.27466178364  9.5102561956  m  1  1  1  v  -2.15743502958e-05  -7.66476759401e-05  2.7788686913e-05
-3.27286695661  7.18861326938  9.45774633076  m  1  1  1  v  7.94339240274e-05  -4.84710844697e-05  9.5541151639e-06
4.55733561613  6.33936223439  1.8981681935  m  1  1  1  v  -3.2330166362e-05  1.09733071286e-05  6.07247172409e-05
1.52446689814  0.927656897688  1.91637959058  m  1  1  1  v  4.08331703428e-07  4.2447731878e-05  5.07380830409e-05
7.72337881535  1.00683816303  1.96353595565  m  1  1  1  v  1.99204204328e-05  6.17470375692e-06  3.61194500694e-07
-1.64094557325  4.48948239464  4.40566802027  m  1  1  1  v  7.41341011426e-05  2.11513898427e-06  -1.56532505777e-05
1.45921719654  4.52423256616  4.43589647219  m  1  1  1  v  5.82099065719e-06  3.25707082865e-05  -5.10475635618e-05
-0.1297212334  7.1967765773  4.4028128425  m  1  1  1  v  1.64812962036e-05  -4.67928482166e-05  4.29393618875e-05
6.09514204761  3.7077603542  7.02120113229  m  1  1  1  v  -4.86064611245e-05  -2.46948308442e-05  -4.62065171308e-05
2.99666307315  3.66861510164  6.99127216666  m  1  1  1  v  -3.26664090176e-05  1.13089011225e-05  -4.85603418362e-05
4.58899684674  1.0051549579  7.02694564027  m  1  1  1  v  1.78975427945e-05  3.88426838035e-06  1.68082798518e-05
-1.68449279034  4.52919662806  9.49609242781  m  1  1  1  v  -7.5791436763e-05  1.77636280098e-05  1.11371367816e-05
1.41089517495  4.56474181676  9.52198080108  m  1  1  1  v  -3.07957605584e-05  -2.59671471023e-05  9.34355141043e-05
-0.169722004667  7.23386546321  9.48388919556  m  1  1  1  v  1.84011013175e-05  5.91290742065e-07  -1.9088776954e-05
6.14281072104  3.67277287273  1.93015710649  m  1  1  1  v  2.86626021822e-05  -6.24158857762e-05  3.97885790174e-05
3.0355413463  3.62860269  1.9020292997  m  1  1  1  v  1.67668790751e-05  -1.5952689281e-05  7.71966184706e-05
4.62564560056  0.965672379479  1.94123063284  m  1  1  1  v  -1.52391268922e-05  -3.50497059733e-06  -7.72180734408e-05
3.03932046996  1.86727284796  4.45990472263  m  1  1  1  v  1.49619373817e-05  -3.02222885472e-05  2.47818291774e-06
6.1413724963  1.90168834345  4.49044750861  m  1  1  1  v  -2.4602340928e-05  -2.54120505301e-05  6.37272349724e-05
4.55217881247  4.56419664893  4.46361332906  m  1  1  1  v  4.75924329625e-05  4.70840044982e-05  -2.23257699486e-05
1.41408378832  6.33511843521  6.96064876586  m  1  1  1  v  -4.93671056398e-05  5.65543139957e-05  5.98335135065e-05
-1.68505354378  6.29643204513  6.93691121993  m  1  1  1  v  3.89978628582e-05  -3.1159385664e-05  2.32768776533e-05
-0.100272077797  3.63279458161  6.96825686713  m  1  1  1  v  -3.89061135847e-05  2.41624980458e-05  7.0394117947e-06
3.00653018855  1.90666719775  9.54805643619  m  1  1  1  v  2.3461407892e-05  -4.56840597088e-05  6.14269478324e-07
6.10293215231  1.94364640371  9.56959894056  m  1  1  1  v  -4.13939429452e-05  -1.0535026747e-05  1.99978088189e-05
4.5184423529  4.60279740967  9.54205398131  m  1  1  1  v  3.34761223275e-06  -2.0306499026e-05  -3.42453865083e-05
1.46077416232  6.30352650398  1.87639799734  m  1  1  1  v  -1.90023527478e-05  6.25243107546e-05  6.97428300338e-05
-1.6457279242  6.25631481097  1.84879071981  m  1  1  1  v  3.04790471808e-05  -4.47570255169e-05  3.52521851059e-05
-0.057015637375  3.59062433061  1.88505889479  m  1  1  1  v  -3.61640007638e-05  -1.8604412712e-05  -4.22262413575e-05
