ATOMIC_SPECIES
Si 28.085 Si_ONCV_PBE-1.0.upf upf201
C 12.011 C_ONCV_PBE-1.0.upf upf201

NUMERICAL_ORBITAL
Si_gga_9au_100Ry_3s3p2d.orb
C_gga_9au_100Ry_3s3p2d.orb

LATTICE_CONSTANT
1.88972612546

LATTICE_VECTORS
9.22824166398 0 0 #latvec1
-4.81929230707 8.18557746278 0 #latvec2
-0.162819713413 0.155022312906 10.1884293622 #latvec3

ATOMIC_POSITIONS
Cartesian

Si #label
0 #magnetism
36 #number of atoms
-0.0387790061526  1.8116286698  2.52763076337  m  1  1  1  v  3.11327340165e-05  -1.67140429087e-05  -1.96229588571e-05
2.98530552995  7.22073335008  2.51614308132  m  1  1  1  v  2.74992552692e-05  2.80499172714e-05  -1.32143665566e-05
-3.2130770092  7.13930648358  2.46418615919  m  1  1  1  v  -4.13316543042e-05  2.95296855376e-06  0.000100940013348
4.52960476701  6.36670631304  5.07142979403  m  1  1  1  v  -9.6821758236e-05  6.17722963751e-05  8.90938044263e-05
1.49816552673  0.960797025758  5.09041780873  m  1  1  1  v  -7.65150632844e-05  1.42188933464e-05  -5.79419312816e-05
7.69686033479  1.03542818656  5.12865792827  m  1  1  1  v  -0.000110776680472  0.000129059145121  -8.62608140757e-05
-0.0829304179701  1.83968156023  7.62361435843  m  1  1  1  v  3.72557245792e-05  4.31888024643e-05  4.56234381385e-05
2.94649135501  7.26526529467  7.59464270012  m  1  1  1  v  -0.000101766020897  7.76797978132e-05  -9.04585984691e-05
-3.24749399684  7.17917899045  7.55370895695  m  1  1  1  v  -7.19398840857e-05  7.56182248364e-05  -2.84414734495e-05
4.48442098073  6.40430499796  10.1575728785  m  1  1  1  v  -6.88938645907e-05  -6.15819846124e-05  -2.08334464979e-05
1.44646996547  0.981048509744  10.1801110316  m  1  1  1  v  -0.000112956273323  -5.30917435414e-05  -6.32410810505e-05
7.82129641519  0.906076148858  0.0328545050155  m  1  1  1  v  5.68220176e-05  -5.16625862954e-05  -3.88062654475e-05
-1.62785787272  4.47698088307  2.50111420579  m  1  1  1  v  -0.000137540290875  -8.58763185277e-05  0.000164188621685
1.4814046834  4.51431599345  2.51872267301  m  1  1  1  v  0.000139926437039  -0.000169614797004  -7.74200848742e-06
-0.1114982904  7.17934424655  2.48076614593  m  1  1  1  v  7.20467783922e-06  -6.76045544266e-07  -0.000195248824212
6.11837359158  3.69432831836  5.10755422919  m  1  1  1  v  -5.12762410198e-05  9.84814213552e-05  0.00018815338042
3.0129373048  3.65506169789  5.08076450347  m  1  1  1  v  0.000119048361173  -0.000106883585376  -1.2168053053e-05
4.58836173018  0.992333915272  5.12487489382  m  1  1  1  v  -6.76369148523e-05  4.00165332864e-06  2.84545037468e-05
-1.67533767038  4.51963526104  7.5782639933  m  1  1  1  v  9.12527622156e-05  -6.24045864857e-05  8.04828918262e-05
1.42902003251  4.55277383647  7.60605571468  m  1  1  1  v  6.99080375591e-06  0.000103091700762  1.98518331016e-05
-0.152943390557  7.22381738676  7.57648743549  m  1  1  1  v  -2.80731522731e-05  0.000232157220667  -2.94213459881e-05
6.06724779631  3.73887058257  10.1845446592  m  1  1  1  v  -9.18919990202e-05  5.04254318909e-05  -3.94271227472e-05
2.96975123327  3.68819426196  10.1711710674  m  1  1  1  v  0.000112968743312  0.000133302991619  8.21938147637e-05
4.7231528064  0.875382505356  0.00659304716584  m  1  1  1  v  3.92258988915e-05  2.44038587122e-05  -7.91987616551e-05
3.05782539911  1.84796895422  2.55296624208  m  1  1  1  v  2.0132255263e-05  5.3557520991e-05  0.000125705396406
6.14596158428  1.88470688942  2.57280605501  m  1  1  1  v  -0.000171668989169  1.36237980624e-05  1.18058856304e-05
4.57456884268  4.54389429631  2.54768533596  m  1  1  1  v  2.32377953587e-06  -8.63232993049e-05  0.000130605237409
1.42847227033  6.32617528847  5.0424447  m  1  1  1  v  6.74223965569e-06  7.95914694988e-05  -7.19916737736e-05
-1.66945034519  6.28152281768  5.03012439412  m  1  1  1  v  4.08233896353e-05  -8.26489396328e-05  7.36346138905e-05
-0.0841275714571  3.61555307236  5.0629284172  m  1  1  1  v  0.000116080097783  -9.48864514428e-05  -5.0335018177e-05
3.00577522949  1.881437527  7.64780054752  m  1  1  1  v  -9.52655366816e-05  -0.000121680831292  0.000168622433715
6.12611625806  1.93055351188  7.64986815441  m  1  1  1  v  8.96185084644e-05  2.53582844094e-05  1.2729156021e-05
4.53387044856  4.58747893926  7.61575695547  m  1  1  1  v  5.35370387056e-05  -7.19212157654e-05  -8.73774462348e-05
1.38876130442  6.36360367005  10.1388282608  m  1  1  1  v  -8.90100828616e-05  -3.45463224013e-05  -6.46691711595e-05
-1.70637694752  6.32137580486  10.1136052344  m  1  1  1  v  -0.000171960462368  -3.46454390794e-07  -1.15333609553e-05
-0.120586544708  3.65331808395  10.1532756112  m  1  1  1  v  -5.41311190996e-05  5.05514715935e-05  2.4988790349e-05

C #label
0 #magnetism
36 #number of atoms
-0.0622322877369  1.83026668877  4.42922419531  m  1  1  1  v  5.19825683094e-06  0.000110680333532  -7.75907694175e-05
2.96476127641  7.23278942644  4.4258639559  m  1  1  1  v  -0.000198543939179  0.000131380537832  3.80050190969e-05
-3.22975947719  7.15925444141  4.38148011714  m  1  1  1  v  9.18656005777e-05  -0.000128023820526  0.000232721916902
4.51114585636  6.38800503844  6.96347086709  m  1  1  1  v  -0.00024594658856  -8.32995965553e-05  6.1305868085e-05
1.48126423895  0.96490472007  6.99929039809  m  1  1  1  v  0.000106264189338  0.000110731005723  -0.000110286786138
7.69362217961  1.04064773471  7.03892195968  m  1  1  1  v  -6.46185339071e-05  0.000230618379931  -7.28106170248e-05
-0.113864574509  1.85558736266  9.52549822469  m  1  1  1  v  -0.000274391277483  8.72321719977e-05  -0.000168628618507
2.91598859338  7.26469540459  9.50115202984  m  1  1  1  v  -0.000127990360225  -3.70550960124e-05  -0.000186086645838
-3.27246286113  7.19746404211  9.45955610574  m  1  1  1  v  0.000166548354836  7.94663476369e-05  0.000138841538992
4.56055331449  6.33126688688  1.8919403222  m  1  1  1  v  5.33391242946e-05  -9.13786516034e-05  -0.000208605045236
1.52138570917  0.92817312945  1.9072598622  m  1  1  1  v  -0.000171069708506  -0.000167461621467  -6.24796585357e-05
7.72723363906  1.00521455264  1.96980524461  m  1  1  1  v  2.11931466239e-05  -5.7153120433e-05  -3.52722997853e-05
-1.64762070481  4.49890389386  4.41003660447  m  1  1  1  v  0.000162440252607  9.58524620419e-05  -0.000171951475182
1.44583602091  4.53169607406  4.43099640454  m  1  1  1  v  -1.25280774933e-05  -0.000100192267075  -0.00020274191565
-0.134427417394  7.19923988251  4.40959483077  m  1  1  1  v  4.31374568227e-05  6.06328277951e-05  -1.77570905305e-05
6.07808786456  3.7144123234  7.02919214745  m  1  1  1  v  -9.71669170966e-05  -3.58317249726e-05  0.000224925329749
2.99768713138  3.67112440137  6.98336375163  m  1  1  1  v  -9.94780776276e-05  2.86480172789e-05  -5.40490103406e-06
4.58343885344  1.00763708333  7.01952001831  m  1  1  1  v  9.27807555584e-05  0.000203847474612  -0.000105437910477
-1.67716363635  4.51839307682  9.50411190586  m  1  1  1  v  -0.000103175433821  5.75335657189e-05  0.000235770928086
1.40282712718  4.56730517626  9.51565877046  m  1  1  1  v  -2.51565449615e-06  -0.000214019356167  -0.000154960548319
-0.164719879301  7.2379515935  9.49704629857  m  1  1  1  v  0.000161322568796  -3.93938851448e-06  9.21055049751e-05
6.14478950273  3.67662186809  1.92230108835  m  1  1  1  v  3.13217000186e-05  -4.07664303129e-05  0.000102210357552
3.03426973399  3.6274033923  1.89940159942  m  1  1  1  v  0.000146007831909  -0.000225354535591  -0.000139397802363
4.63377164456  0.955383158278  1.93647871825  m  1  1  1  v  0.000315482992893  6.01293310102e-05  0.000110067858405
3.03144218319  1.86930354782  4.45464478857  m  1  1  1  v  -0.000236196248449  0.00012532897353  0.000125913951126
6.13775138418  1.89210262006  4.48329724491  m  1  1  1  v  -0.000300147780554  -0.000273572383909  -0.000216184701111
4.54834525197  4.5703258406  4.44848950352  m  1  1  1  v  -4.68511211579e-06  -2.90695935821e-05  -0.000167932588517
1.41537484018  6.33934631088  6.96457095633  m  1  1  1  v  -3.25165592882e-05  7.27459981726e-05  5.08142541782e-05
-1.68893099916  6.30236916871  6.9362250021  m  1  1  1  v  0.000214800099048  -5.45271303443e-05  9.85696760968e-05
-0.0981930271944  3.63889656028  6.97275869562  m  1  1  1  v  0.000102786666625  0.000267496534647  -0.000124583316246
2.99988448489  1.90617270985  9.55242706411  m  1  1  1  v  -7.59183224271e-05  6.86131071182e-05  0.000173353042287
6.10316822166  1.93754127489  9.57467747198  m  1  1  1  v  1.40723164733e-05  -0.000180513264439  -0.000165142239581
4.52520593722  4.59426907503  9.55456458488  m  1  1  1  v  0.00012200817533  -1.91712939603e-05  -4.33641972134e-05
1.45749526156  6.3002916989  1.87471011801  m  1  1  1  v  3.11355140923e-05  -5.38695295599e-05  -0.000286169047985
-1.64118030662  6.24622916717  1.85218526167  m  1  1  1  v  0.000139538879733  -0.00029563554323  0.000205857932922
-0.0675387295509  3.59055807136  1.87719431981  m  1  1  1  v  -7.67073114647e-05  -0.00025327023815  -2.94717820139e-05
