ATOMIC_SPECIES
Si 28.085 Si_ONCV_PBE-1.0.upf upf201
C 12.011 C_ONCV_PBE-1.0.upf upf201

NUMERICAL_ORBITAL
Si_gga_9au_100Ry_3s3p2d.orb
C_gga_9au_100Ry_3s3p2d.orb

LATTICE_CONSTANT
1.88972612546

LATTICE_VECTORS
8.96801747595 0 0 #latvec1
0.0994430403272 8.95162900021 0 #latvec2
-0.243055762091 -0.217457639567 8.63999883322 #latvec3

ATOMIC_POSITIONS
Cartesian

Si #label
0 #magnetism
32 #number of atoms
3.25165530879  1.02889511857  3.34570193853  m  1  1  1  v  4.04372831213e-05  -8.21405037244e-05  1.11037576812e-05
3.19809548328  1.00068901947  7.73794967543  m  1  1  1  v  -4.0135573606e-05  8.69208355545e-05  3.56856584146e-05
3.2684945966  5.41613132145  3.40804206316  m  1  1  1  v  8.20608100566e-05  -9.85527250443e-05  5.50642077003e-05
3.2109931561  5.37621279022  7.80548425632  m  1  1  1  v  -0.000175655001874  6.22532608057e-05  2.39981353871e-06
7.64270328625  1.01797370187  3.4045626631  m  1  1  1  v  -5.04759001757e-05  -4.895800369e-05  7.91757029311e-06
7.5858546139  0.952873136505  7.79424619732  m  1  1  1  v  6.0973378174e-05  -5.06012936487e-05  1.83674041534e-05
7.66484918683  5.41287134724  3.4767009133  m  1  1  1  v  -8.67031124119e-05  -7.97023343823e-05  0.000114978093578
7.61078533707  5.35235775148  7.8382834651  m  1  1  1  v  0.000206539250813  0.00010374866817  -0.000163066667123
3.29083915991  3.25169314276  1.20171713892  m  1  1  1  v  -0.000159552556881  -0.000170416893018  -2.14403886924e-05
3.2344737072  3.21041088167  5.57246751545  m  1  1  1  v  -2.22225492089e-06  -4.97839298106e-05  1.07725806754e-05
3.32477247095  7.65363060096  1.24158508032  m  1  1  1  v  -0.000127890362353  1.40931944118e-05  0.000166684826395
3.27026757567  7.59470243781  5.61652256421  m  1  1  1  v  9.88988984583e-05  -5.6270257236e-06  4.15371233047e-05
7.69083110646  3.23908892188  1.23597730077  m  1  1  1  v  -5.25965794358e-05  2.19955480617e-05  -4.63514723793e-05
7.62879587178  3.18086183545  5.63071105806  m  1  1  1  v  -1.64163834093e-05  7.79762284079e-05  2.37891205553e-05
7.70986566439  7.6398488495  1.30235428208  m  1  1  1  v  4.33623269214e-05  3.91367007948e-05  -7.48421031927e-06
7.66556760701  7.57695695817  5.69467884278  m  1  1  1  v  3.00430216431e-05  0.000110134168162  -6.43295538158e-05
1.09710074826  1.08597586388  1.12653863395  m  1  1  1  v  3.20697867638e-05  0.000193710944067  0.000124547646419
1.02679460296  1.02957113476  5.53031398086  m  1  1  1  v  -7.65055974943e-05  0.000170729945311  -2.76645473758e-06
1.11989639114  5.47236410979  1.18765761745  m  1  1  1  v  -0.000228488516242  2.08958045131e-06  6.74744491533e-05
1.03883152847  5.41992462724  5.57958935219  m  1  1  1  v  -0.000237091919409  3.27403781099e-06  6.1951799214e-07
5.47804487844  1.04233807073  1.18189157945  m  1  1  1  v  4.00317698841e-05  -0.000119234036217  -5.08011461359e-06
5.42505670121  1.00821251128  5.58019836892  m  1  1  1  v  -2.56663893933e-05  -4.4134420382e-05  -6.40401745423e-05
5.49950197692  5.44434588492  1.23672793786  m  1  1  1  v  1.56657814345e-05  -8.73452807576e-05  -4.08104010796e-05
5.45337285328  5.40897767342  5.62213319275  m  1  1  1  v  -4.36692237308e-05  0.000109880613766  4.55801265531e-05
1.06537568362  3.24620935539  3.36018310424  m  1  1  1  v  -7.00171362186e-05  0.000147568356816  4.91820712933e-05
1.00570867497  3.1987552594  7.75316519337  m  1  1  1  v  -9.6670522843e-05  -6.71598927053e-05  -0.000133210026394
1.08668596581  7.64205834988  3.40483907478  m  1  1  1  v  -0.00011606251076  2.93329643302e-05  -0.000130186536207
1.04054185337  7.57175526621  7.79422050305  m  1  1  1  v  -4.03251539885e-05  8.86067004411e-06  3.71453058767e-05
5.46355283586  3.21555053804  3.40800581605  m  1  1  1  v  8.95804417933e-06  1.82322618033e-05  -0.000152512941494
5.40296822685  3.16484295717  7.79201179077  m  1  1  1  v  5.8814710019e-05  4.11752613516e-05  -0.000157326910902
5.49001587868  7.6262728036  3.46075247104  m  1  1  1  v  7.49676681536e-05  9.99287455486e-05  -2.04869277345e-05
5.42347203164  7.56063959141  7.84330392918  m  1  1  1  v  3.95895242523e-05  -0.000157043245085  -9.09898498534e-05

C #label
0 #magnetism
32 #number of atoms
8.89279131361  8.91494136317  0.128088444042  m  1  1  1  v  5.9622591298e-05  3.48810432217e-05  0.000198989426162
8.72085649568  -0.101348590143  4.5063805694  m  1  1  1  v  0.000298972893512  -8.78093711559e-06  -1.67004235563e-05
8.81156317276  4.34359572353  0.185972068914  m  1  1  1  v  6.22229450042e-05  1.12259505215e-05  -0.000121259645901
8.73496276197  4.28752992782  4.56692483941  m  1  1  1  v  0.000110239802493  -5.62725443965e-05  9.2880962046e-05
4.49210397535  8.92372447947  0.0624605979903  m  1  1  1  v  -0.000150862700987  0.000105998494966  0.000229418437963
4.33756613511  -0.0777199635122  4.46045897792  m  1  1  1  v  -2.7266439513e-05  -0.000255805935051  0.000110327319886
4.41419583395  4.36868877634  0.116799023944  m  1  1  1  v  -0.000234755480096  -0.000153927512435  -0.00016234626814
4.35352006245  4.30879502447  4.5056715817  m  1  1  1  v  -0.00013718783199  0.000295374942343  0.000186310296969
8.76884127912  2.117846498  2.34911541532  m  1  1  1  v  9.12169863268e-05  5.79401192408e-05  -8.29293834235e-05
8.70669594594  2.06786348056  6.72700846484  m  1  1  1  v  4.69246140062e-05  0.000123363308208  -4.30717035786e-06
8.78730459652  6.51221644145  2.39404704947  m  1  1  1  v  -6.19993682437e-06  8.93211223913e-05  0.00010012896582
8.74462666931  6.44679096608  6.77629421523  m  1  1  1  v  0.000108668732139  -2.16542284495e-05  0.000126047913342
4.36536565411  2.14263471132  2.28794372834  m  1  1  1  v  4.27719664079e-05  -9.63957621008e-05  0.000142798471363
4.32093752927  2.11145430459  6.66342398685  m  1  1  1  v  -0.000129694728577  -9.61885558068e-05  -0.00027953419337
4.39683967002  6.51716025253  2.34214124659  m  1  1  1  v  2.26257952608e-05  -0.000194934211432  0.00021361717963
4.33311638157  6.48491411487  6.72335647025  m  1  1  1  v  -0.000187745887328  -0.000204459189792  -0.00033959698296
2.15696693718  -0.038706968601  2.22506366309  m  1  1  1  v  -8.34992041599e-05  -0.000168238576584  -0.000121521633425
2.08543893088  -0.0838752487318  6.63161072645  m  1  1  1  v  4.07305681241e-05  3.32262097881e-05  -0.000207544526787
2.17924279864  4.34058494128  2.28645680687  m  1  1  1  v  -0.000110730887544  -0.000212953561968  0.00016599131084
2.14883306539  4.30300922359  6.66372602662  m  1  1  1  v  -0.000206116439717  0.00010687882084  -7.11358820917e-05
6.651202787  8.8932801147  2.29881148687  m  1  1  1  v  -0.000150345029003  -5.10009150633e-05  -7.56369260259e-06
6.5066214467  -0.136170591143  6.6794081888  m  1  1  1  v  -5.19540660109e-05  1.93614959944e-05  -3.05420284633e-05
6.58729249336  4.32148305276  2.32737301368  m  1  1  1  v  0.000141416868802  0.000108466750736  -0.000123257708824
6.52194020465  4.28077009301  6.73290268574  m  1  1  1  v  -6.26048388647e-05  0.000329024909475  0.000121798613053
2.20651616657  2.17648025597  0.0600664533378  m  1  1  1  v  4.73998048385e-05  3.35396788765e-05  1.41570563871e-06
2.15511804569  2.13436266303  4.44095935296  m  1  1  1  v  -0.000119856685878  -0.000196079994155  8.43184645816e-05
2.2366589326  6.5732459627  0.132178316366  m  1  1  1  v  -6.8510689386e-05  0.000105656377928  7.15391184003e-06
2.17204656339  6.51146784412  4.50227848882  m  1  1  1  v  0.000107980235096  0.000130342330663  7.05468472521e-05
6.60313374808  2.16338265022  0.128534292018  m  1  1  1  v  -9.74657133957e-05  9.88417667045e-06  0.00025220976135
6.53048426729  2.09911522259  4.50703595147  m  1  1  1  v  7.34487201385e-05  -0.000152904785004  -5.18396242498e-05
6.62195850392  6.55765825734  0.186606197231  m  1  1  1  v  6.67697538484e-06  8.0740350946e-05  -8.4804400579e-06
6.57112435452  6.50151654801  4.56397644747  m  1  1  1  v  -2.75821602374e-05  6.83221152554e-05  1.94450952845e-05
