ATOMIC_SPECIES
Al 26.982 Al_ONCV_PBE-1.0.upf upf201

NUMERICAL_ORBITAL
Al_gga_7au_100Ry_4s4p1d.orb

LATTICE_CONSTANT
1.88972612546

LATTICE_VECTORS
4.03459549706 0 0 #latvec1
0 4.03459549706 0 #latvec2
0 0 4.03459549706 #latvec3

ATOMIC_POSITIONS
Direct

Al #label
0 #magnetism
4 #number of atoms
0  0  0  m  0  0  0
0.5  0.5  0  m  0  0  0
0.5  0  0.5  m  0  0  0
0  0.5  0.5  m  0  0  0
