ATOMIC_SPECIES
Si 28.085 Si_ONCV_PBE-1.0.upf
C 12.011 C_ONCV_PBE-1.0.upf

LATTICE_CONSTANT
1.8897261254578281

LATTICE_VECTORS
9.094073600307977 0.0 0.0 
-4.7114397600889095 8.286230053952261 0.0 
-0.0985988307040811 0.2217064265687007 10.286786567873001 

ATOMIC_POSITIONS
Cartesian    # Cartesian(Unit is LATTICE_CONSTANT)
Si
0.0
36
-0.029259003274 1.821614537532 2.515304073919 1 1 1
3.022159186307 7.206499247787 2.472550233560 1 1 1
-3.178917962297 7.152918481961 2.440798267068 1 1 1
4.564185028793 6.373066068653 5.037510615349 1 1 1
1.511005095466 0.959835515662 5.079382003718 1 1 1
7.730764375439 1.039976741261 5.103187176480 1 1 1
-0.049505220206 1.865015843660 7.604843190652 1 1 1
2.998540724681 7.274122727209 7.577180505506 1 1 1
-3.198628915612 7.195410162792 7.533791745435 1 1 1
4.540397460951 6.405122583961 10.119198841529 1 1 1
1.499060678002 1.017213359344 10.160106282997 1 1 1
7.689382548144 1.079849664407 10.202213365309 1 1 1
-1.626921553400 4.485691195507 2.492911016470 1 1 1
1.484083747213 4.512901796009 2.499291302334 1 1 1
-0.074560459547 7.181358356991 2.469035855539 1 1 1
6.137339598919 3.690821348298 5.082251431194 1 1 1
3.029588282220 3.661872369727 5.056164302474 1 1 1
4.620808001192 0.995733566492 5.113184355369 1 1 1
-1.629605915329 4.531604209332 7.559003770813 1 1 1
1.458291475747 4.563644247250 7.606829982334 1 1 1
-0.107879229990 7.244457438990 7.549817765233 1 1 1
6.110415413132 3.766014630594 10.149753012713 1 1 1
3.017632613238 3.715407699690 10.132754188554 1 1 1
4.580413649089 1.033707512528 10.183658186944 1 1 1
3.067782052269 1.837484199281 2.519654366637 1 1 1
6.165636466487 1.875943267889 2.552157897307 1 1 1
4.579665474566 4.542685524669 2.523592132688 1 1 1
1.464210152711 6.329401799368 5.024076204426 1 1 1
-1.651922035051 6.302475473862 4.996467335431 1 1 1
-0.049851238710 3.621751788964 5.052422932609 1 1 1
3.045792469641 1.894575594412 7.620773665843 1 1 1
6.145123367149 1.934255767004 7.619550859685 1 1 1
4.576050490324 4.604453663136 7.587390202337 1 1 1
1.432051704724 6.373798528875 10.116710622472 1 1 1
-1.669087419315 6.348293507216 10.078259484199 1 1 1
-0.078880066046 3.683927652935 10.124988927913 1 1 1
C
0.0
36
-0.047291516117 1.826087553005 4.424293707823 1 1 1
3.004599466478 7.233834238865 4.394324226474 1 1 1
-3.203432085823 7.164932588292 4.358610603481 1 1 1
4.550812772372 6.392879561070 6.936494494756 1 1 1
1.494208732036 1.003671211062 6.989200165306 1 1 1
7.717668819679 1.053131594184 7.026138025480 1 1 1
-0.063458230781 1.902145210113 9.526241414731 1 1 1
2.973916946346 7.285981168174 9.479837757943 1 1 1
-3.212420335920 7.220528850920 9.425712684544 1 1 1
4.593811846440 6.323023700766 1.866944174114 1 1 1
1.531512432058 0.920966900139 1.913917636155 1 1 1
7.736962962716 0.988708154299 1.941095255408 1 1 1
-1.629209881064 4.519298418500 4.404621025804 1 1 1
1.492832567600 4.546561921001 4.417436908659 1 1 1
-0.089411710166 7.217087027163 4.377981119207 1 1 1
6.125581702672 3.709921153318 6.989524623937 1 1 1
3.024196701326 3.685420934965 6.962304067550 1 1 1
4.613661832808 1.015884826046 7.002414423043 1 1 1
-1.648262501476 4.557665638973 9.483236124051 1 1 1
1.473739514091 4.593261925369 9.503348610474 1 1 1
-0.124901375990 7.269648806061 9.459824799096 1 1 1
6.155988429524 3.663553846294 1.910250062524 1 1 1
3.049835402079 3.619274704676 1.889075510955 1 1 1
4.628013369407 0.965659577107 1.918811112680 1 1 1
3.043792446614 1.872504656342 4.450533767328 1 1 1
6.163976733645 1.906873764460 4.466643153339 1 1 1
4.576006068785 4.555812727411 4.440035114053 1 1 1
1.445029701921 6.360133891455 6.923026045885 1 1 1
-1.655236350638 6.315661823494 6.932869333910 1 1 1
-0.077048424964 3.641909225741 6.954876982357 1 1 1
3.051533439154 1.925744113541 9.516773767439 1 1 1
6.140828735577 1.961175782838 9.557266706813 1 1 1
4.549512163976 4.615521385696 9.511419941171 1 1 1
1.481173974988 6.303657700572 1.857785282868 1 1 1
-1.634946798806 6.255259095975 1.837409754818 1 1 1
-0.053029911262 3.593163556370 1.878132987269 1 1 1

NUMERICAL_ORBITAL
Si_gga_9au_100Ry_3s3p2d.orb
C_gga_9au_100Ry_3s3p2d.orb
